 vasp.5.4.4.18Apr17-6-g9f103f2a35 (build Oct 27 2022 13:04:57) complex

 executed on             LinuxIFC date 2024.07.04  00:13:22

 INCAR:
 POTCAR:    PAW_PBE Li 17Jan2003
 POTCAR:    PAW_PBE Bi 08Apr2002
 POTCAR:    PAW_PBE S 06Sep2000

 POTCAR:    PAW_PBE Li 17Jan2003
   VRHFIN =Li: s1p0

   TITEL  = PAW_PBE Li 17Jan2003
   POMASS =    7.010; ZVAL   =    1.000    mass and valenz
   ENMAX  =  140.000; ENMIN  =  100.000 eV

 POTCAR:    PAW_PBE Bi 08Apr2002
   VRHFIN =Bi:

   TITEL  = PAW_PBE Bi 08Apr2002
   POMASS =  208.980; ZVAL   =    5.000    mass and valenz
   ENMAX  =  105.037; ENMIN  =   78.777 eV

 POTCAR:    PAW_PBE S 06Sep2000
   VRHFIN =S : s2p4

   TITEL  = PAW_PBE S 06Sep2000
   POMASS =   32.066; ZVAL   =    6.000    mass and valenz
   ENMAX  =  258.689; ENMIN  =  194.016 eV

 Optimization of the real space projectors (new method)

 maximal supplied QI-value         = 18.33
 optimisation between [QCUT,QGAM] = [  8.80, 17.60] = [ 21.68, 86.71] Ry
 Optimized for a Real-space Cutoff    1.15 Angstroem

   l    n(q)    QCUT    max X(q) W(low)/X(q) W(high)/X(q)  e(spline)
   0      6     8.799    33.825    0.11E-02    0.11E-02    0.82E-07
   0      6     8.799     8.944    0.75E-03    0.85E-03    0.59E-07
   1      5     8.799     4.214    0.92E-03    0.27E-03    0.41E-07
 Optimization of the real space projectors (new method)

[...]

   l    n(q)    QCUT    max X(q) W(low)/X(q) W(high)/X(q)  e(spline)
   0      8     8.855    93.365    0.12E-03    0.22E-03    0.92E-07
   0      8     8.855    75.373    0.13E-03    0.24E-03    0.10E-06
   1      8     8.855    32.978    0.17E-02    0.62E-03    0.17E-06
   1      8     8.855    35.433    0.19E-02    0.68E-03    0.19E-06
   2      7     8.855     8.108    0.22E-03    0.34E-03    0.64E-07
 Optimization of the real space projectors (new method)

 maximal supplied QI-value         = 19.84
 optimisation between [QCUT,QGAM] = [  8.73, 17.66] = [ 21.34, 87.33] Ry
 Optimized for a Real-space Cutoff    1.22 Angstroem

   l    n(q)    QCUT    max X(q) W(low)/X(q) W(high)/X(q)  e(spline)
   0      6     8.731   187.594    0.15E-02    0.56E-03    0.90E-07
   0      6     8.731   164.243    0.15E-02    0.56E-03    0.89E-07
   1      6     8.731    67.533    0.37E-03    0.20E-02    0.11E-06
   1      6     8.731    50.729    0.36E-03    0.19E-02    0.10E-06
  PAW_PBE Li 17Jan2003                  :
  PAW_PBE Bi 08Apr2002                  :
  PAW_PBE S 06Sep2000                   :

 POSCAR: Li16 Bi8 S20
  positions in direct lattice
 exchange correlation table for  LEXCH =        8
   RHO(1)=    0.500       N(1)  =     2000
   RHO(2)=  100.500       N(2)  =     4000

 ion  position               nearest neighbor table
   1  0.250  0.192  0.920-  28 2.97  28 2.97
   2  0.250  0.692  0.580-  26 2.97  26 2.97
   3  0.750  0.808  0.080-  27 2.97  27 2.97
   4  0.250  0.428  0.917-  29 2.91  29 2.91
   5  0.750  0.572  0.083-  42 2.91  42 2.91
   6  0.250  0.928  0.583-  31 2.91  31 2.91
   7  0.750  0.072  0.417-  30 2.91  30 2.91
   8  0.250  0.185  0.265-  43 2.97
   9  0.750  0.815  0.735-  44 2.97
  10  0.250  0.685  0.235-  41 2.97
  11  0.750  0.315  0.765-  40 2.97
  12  0.250  0.183  0.569-  32 2.89
  13  0.750  0.817  0.431-  33 2.89
  14  0.250  0.683  0.931-  34 2.89
  15  0.750  0.317  0.069-  35 2.89
  16  0.750  0.308  0.420-  25 2.97  25 2.97
  17  0.750  0.570  0.757-  29 2.66  34 2.80  34 2.80  36 2.86  36 2.86  26 3.08
  18  0.250  0.430  0.243-  42 2.66  35 2.80  35 2.80  37 2.86  37 2.86  25 3.08
  19  0.250  0.930  0.257-  30 2.66  33 2.80  33 2.80  39 2.86  39 2.86  27 3.08
  20  0.750  0.070  0.743-  31 2.66  32 2.80  32 2.80  38 2.86  38 2.86  28 3.08
  21  0.250  0.442  0.589-  36 2.70  40 2.75  40 2.75  26 2.97  26 2.97  25 3.00
  22  0.750  0.558  0.411-  37 2.70  41 2.75  41 2.75  25 2.97  25 2.97  26 3.00
  23  0.250  0.942  0.911-  38 2.70  44 2.75  44 2.75  28 2.97  28 2.97  27 3.00
  24  0.750  0.058  0.089-  39 2.70  43 2.75  43 2.75  27 2.97  27 2.97  28 3.00
  25  0.250  0.433  0.418-  22 2.97  22 2.97  16 2.97  16 2.97  21 3.00  18 3.08
  26  0.750  0.567  0.582-  21 2.97  21 2.97   2 2.97   2 2.97  22 3.00  17 3.08
  27  0.250  0.933  0.082-  24 2.97  24 2.97   3 2.97   3 2.97  23 3.00  19 3.08
  28  0.750  0.067  0.918-  23 2.97  23 2.97   1 2.97   1 2.97  24 3.00  20 3.08
  29  0.750  0.548  0.907-  17 2.66   4 2.91   4 2.91
  30  0.250  0.952  0.407-  19 2.66   7 2.91   7 2.91
  31  0.750  0.048  0.593-  20 2.66   6 2.91   6 2.91
  32  0.250  0.181  0.734-  20 2.80  20 2.80  12 2.89
  33  0.750  0.819  0.266-  19 2.80  19 2.80  13 2.89
  34  0.250  0.681  0.766-  17 2.80  17 2.80  14 2.89
  35  0.750  0.319  0.234-  18 2.80  18 2.80  15 2.89
  36  0.250  0.455  0.742-  21 2.70  17 2.86  17 2.86
  37  0.750  0.545  0.258-  22 2.70  18 2.86  18 2.86
  38  0.250  0.955  0.758-  23 2.70  20 2.86  20 2.86
  39  0.750  0.045  0.242-  24 2.70  19 2.86  19 2.86
  40  0.750  0.335  0.598-  21 2.75  21 2.75  11 2.97
  41  0.250  0.665  0.402-  22 2.75  22 2.75  10 2.97
  42  0.250  0.452  0.093-  18 2.66   5 2.91   5 2.91
  43  0.250  0.165  0.098-  24 2.75  24 2.75   8 2.97
  44  0.750  0.835  0.902-  23 2.75  23 2.75   9 2.97

  LATTYP: Found a simple orthorhombic cell.
 ALAT       =     4.1137554600
 B/A-ratio  =     4.1578771651
 C/A-ratio  =     4.2772772813

  Lattice vectors:

 A1 = (   4.1137554600,   0.0000000000,   0.0000000000)
 A2 = (   0.0000000000,  17.1044898900,   0.0000000000)
 A3 = (   0.0000000000,   0.0000000000,  17.5956727700)

Analysis of symmetry for initial positions (statically):
 Subroutine PRICEL returns:
 Original cell was already a primitive cell.

 Routine SETGRP: Setting up the symmetry group for a
 simple orthorhombic supercell.

 Subroutine GETGRP returns: Found  8 space group operations
 (whereof  2 operations were pure point group operations)
 out of a pool of  8 trial point group operations.

The static configuration has the point symmetry S_2 .
 The point group associated with its full space group is D_2h.

Analysis of symmetry for dynamics (positions and initial velocities):
 Subroutine PRICEL returns:
 Original cell was already a primitive cell.

 Routine SETGRP: Setting up the symmetry group for a
 simple orthorhombic supercell.

 Subroutine GETGRP returns: Found  8 space group operations
 (whereof  2 operations were pure point group operations)
 out of a pool of  8 trial point group operations.

The dynamic configuration has the point symmetry S_2 .
 The point group associated with its full space group is D_2h.

 Subroutine INISYM returns: Found  8 space group operations
 (whereof  2 operations are pure point group operations),
 and found     1 'primitive' translations

 KPOINTS: pymatgen with grid density = 807 / numbe

Automatic generation of k-mesh.
Space group operators:
 irot       det(A)        alpha          n_x          n_y          n_z        tau_x        tau_y        tau_z
    1     1.000000     0.000001     1.000000     0.000000     0.000000     0.000000     0.000000     0.000000
    2    -1.000000     0.000001     1.000000     0.000000     0.000000     0.000000     0.000000     0.000000
    3     1.000000   180.000000     0.000000     0.000000     1.000000     0.000000     0.500000     0.500000
    4    -1.000000   180.000000     0.000000     0.000000     1.000000     0.000000     0.500000     0.500000
    5     1.000000   180.000000     0.000000     1.000000     0.000000     0.500000     0.500000     0.500000
    6    -1.000000   180.000000     0.000000     1.000000     0.000000     0.500000     0.500000     0.500000
    7     1.000000   179.999999     1.000000     0.000000     0.000000     0.500000     0.000000     0.000000
    8    -1.000000   179.999999     1.000000     0.000000     0.000000     0.500000     0.000000     0.000000

 Subroutine IBZKPT returns following result:

 Found      3 irreducible k-points:

 Following reciprocal coordinates:
            Coordinates               Weight
  0.000000  0.250000  0.250000      4.000000
  0.200000  0.250000  0.250000      8.000000
  0.400000  0.250000  0.250000      8.000000

 Following cartesian coordinates:
            Coordinates               Weight
  0.000000  0.014616  0.014208      4.000000
  0.048617  0.014616  0.014208      8.000000
  0.097235  0.014616  0.014208      8.000000

 SYSTEM =  CIS
 POSCAR =  Li16 Bi8 S20

 Startparameter for this run:
   NWRITE =      2    write-flag & timer
   PREC   = medium    normal or accurate (medium, high low for compatibility)
   ISTART =      0    job   : 0-new  1-cont  2-samecut
   ICHARG =      2    charge: 1-file 2-atom 10-const
   ISPIN  =      1    spin polarized calculation?
   LNONCOLLINEAR =      F non collinear calculations
   LSORBIT =      F    spin-orbit coupling
   INIWAV =      1    electr: 0-lowe 1-rand  2-diag
   LASPH  =      T    aspherical Exc in radial PAW
   METAGGA=      F    non-selfconsistent MetaGGA calc.

 Electronic Relaxation 1
   ENCUT  =  300.0 eV  22.05 Ry    4.70 a.u.   5.81 24.16 24.85*2*pi/ulx,y,z
   ENINI  =  300.0     initial cutoff
   ENAUG  =  335.1 eV  augmentation charge cutoff
   NELM   =     60;   NELMIN=  2; NELMDL= -5     # of ELM steps
   EDIFF  = 0.1E-03   stopping-criterion for ELM
   LREAL  =      T    real-space projection
   NLSPLINE    = F    spline interpolate recip. space projectors
   LCOMPAT=      F    compatible to vasp.4.4
   GGA_COMPAT  = T    GGA compatible to vasp.4.4-vasp.4.6
   LMAXPAW     = -100 max onsite density
   LMAXMIX     =    4 max onsite mixed and CHGCAR
   VOSKOWN=      0    Vosko Wilk Nusair interpolation
   ROPT   =   -0.00200  -0.00200  -0.00200
 Ionic relaxation
   EDIFFG = -.5E-01   stopping-criterion for IOM
   NSW    =     99    number of steps for IOM
   NBLOCK =      1;   KBLOCK =     99    inner block; outer block
   IBRION =      2    ionic relax: 0-MD 1-quasi-New 2-CG
   NFREE  =      1    steps in history (QN), initial steepest desc. (CG)
   ISIF   =      3    stress and relaxation
   IWAVPR =     11    prediction:  0-non 1-charg 2-wave 3-comb
   ISYM   =      2    0-nonsym 1-usesym 2-fastsym
   LCORR  =      T    Harris-Foulkes like correction to forces

   POTIM  = 0.1000    time-step for ionic-motion
   TEIN   =    0.0    initial temperature
   TEBEG  =    0.0;   TEEND  =   0.0 temperature during run
   SMASS  =  -3.00    Nose mass-parameter (am)
   estimated Nose-frequenzy (Omega)   =  0.10E-29 period in steps =****** mass=  -0.387E-27a.u.
   SCALEE = 1.0000    scale energy and forces
   NPACO  =    256;   APACO  = 16.0  distance and # of slots for P.C.
   PSTRESS=    0.0 pullay stress

  Mass of Ions in am
   POMASS =   7.01208.98 32.07
  Ionic Valenz
   ZVAL   =   1.00  5.00  6.00
  Atomic Wigner-Seitz radii
  virtual crystal weights
   VCA    =   1.00  1.00  1.00
   NELECT =     176.0000    total number of electrons
   NUPDOWN=      -1.0000    fix difference up-down

 DOS related values:
   EMIN   =  10.00;   EMAX   =-10.00  energy-range for DOS
   EFERMI =   0.00
   ISMEAR =     0;   SIGMA  =   0.05  broadening in eV -4-tet -1-fermi 0-gaus

 Electronic relaxation 2 (details)
   IALGO  =     38    algorithm
[...]

[...]

 k-point     3 :       0.4000    0.2500    0.2500
  band No.  band energies     occupation
      1      -9.9825      2.00000
      2      -9.9692      2.00000
      3      -9.5209      2.00000
      4      -9.4951      2.00000
      5      -9.2913      2.00000
      6      -9.2600      2.00000
      7      -9.2157      2.00000
      8      -9.1650      2.00000
      9      -9.0238      2.00000
     10      -8.9561      2.00000
     11      -8.8490      2.00000
     12      -8.8463      2.00000
     13      -8.7850      2.00000
     14      -8.7608      2.00000
     15      -8.7037      2.00000
     16      -8.6865      2.00000
     17      -8.5363      2.00000
     18      -8.5274      2.00000
     19      -8.4902      2.00000
     20      -8.4823      2.00000
     21      -7.3774      2.00000
     22      -7.3738      2.00000
     23      -7.3221      2.00000
     24      -7.3077      2.00000
     25      -6.8530      2.00000
     26      -6.8505      2.00000
     27      -6.6047      2.00000
     28      -6.5961      2.00000
     29      -1.9594      2.00000
     30      -1.9081      2.00000
     31      -1.8261      2.00000
     32      -1.7656      2.00000
     33      -1.4735      2.00000
     34      -1.4383      2.00000
     35      -1.3812      2.00000
     36      -1.3187      2.00000
     37      -1.1578      2.00000
     38      -1.1337      2.00000
     39      -1.0392      2.00000
     40      -1.0161      2.00000
     41      -0.9579      2.00000
     42      -0.8973      2.00000
     43      -0.8550      2.00000
     44      -0.7325      2.00000
     45      -0.6042      2.00000
     46      -0.5950      2.00000
     47      -0.5519      2.00000
     48      -0.4674      2.00000
     49       0.0382      2.00000
     50       0.0742      2.00000
     51       0.0942      2.00000
     52       0.1396      2.00000
     53       0.2060      2.00000
     54       0.2921      2.00000
     55       0.3175      2.00000
     56       0.3350      2.00000
     57       0.4919      2.00000
     58       0.5435      2.00000
     59       0.6233      2.00000
     60       0.6453      2.00000
[...]
     98       5.6138      0.00000
     99       5.6974      0.00000
    100       5.7302      0.00000
    101       5.9009      0.00000
    102       5.9186      0.00000
    103       5.9583      0.00000
    104       6.0019      0.00000
    105       6.1147      0.00000
    106       6.1297      0.00000
    107       6.1393      0.00000
    108       6.1755      0.00000
    109       6.7398      0.00000
    110       6.7683      0.00000
    111       6.9126      0.00000
    112       6.9938      0.00000

 soft charge-density along one line, spin component           1
         0         1         2         3         4         5         6         7         8         9
 total charge-density along one line

------------------------ aborting loop because EDIFF is reached ----------------------------------------

[...]

  FORCE on cell =-STRESS in cart. coord.  units (eV):
  Direction    XX          YY          ZZ          XY          YZ          ZX
  Alpha Z   113.04762   113.04762   113.04762
  Ewald   -1195.58736 -2172.25955 -2013.02944     0.00000     0.00000     0.00000
  Hartree  1041.33608   309.76911   373.51733    -0.00000    -0.00000    -0.00000
  E(xc)    -633.68681  -633.16479  -634.54228     0.00000     0.00000    -0.00000
  Local   -2806.33215 -1092.72987 -1313.19266     0.00000     0.00000    -0.00000
  n-local  2071.66435  2059.78813  2074.91953    -0.06194    -0.00088    -0.00054
  augment  -562.25279  -560.53996  -561.81459     0.00000    -0.00000     0.00000
  Kinetic  1971.47282  1975.71527  1960.44916     0.15425    -0.00067    -0.11864
  Fock        0.00000     0.00000     0.00000     0.00000     0.00000     0.00000
  Total      -0.33823    -0.37405    -0.64531    -0.00000     0.00000     0.00000
  in kB      -0.54298    -0.60047    -1.03595    -0.00000     0.00000     0.00000

 VOLUME and BASIS-vectors are now :
  energy-cutoff  :      300.00
  volume of cell :      998.03
      direct lattice vectors                 reciprocal lattice vectors
     3.941255684 -0.000000000  0.000000000     0.253726244  0.000000000  0.000000000
    -0.000000000 15.821604216  0.000000000     0.000000000  0.063204716  0.000000000
     0.000000000  0.000000000 16.005057380     0.000000000  0.000000000  0.062480251

  length of vectors
     3.941255684 15.821604216 16.005057380     0.253726244  0.063204716  0.062480251

 FORCES acting on ions
    electron-ion (+dipol)            ewald-force                    non-local-force                 convergence-correction
   -.116E-11 -.233E+02 0.122E+00   -.122E-14 0.226E+02 -.425E+00   -.124E-19 0.753E+00 0.303E+00   0.269E-15 0.922E-03 -.138E-03
   -.155E-11 -.233E+02 -.122E+00   -.255E-14 0.226E+02 0.425E+00   -.139E-20 0.753E+00 -.303E+00   0.530E-15 0.922E-03 0.138E-03
   -.116E-11 0.233E+02 -.122E+00   0.490E-15 -.226E+02 0.425E+00   0.124E-19 -.753E+00 -.303E+00   0.253E-15 -.922E-03 0.138E-03
   -.104E-11 0.107E+02 -.412E+01   -.690E-15 -.993E+01 0.451E+01   0.218E-20 -.732E+00 -.392E+00   -.326E-16 -.340E-03 0.255E-03
   -.104E-11 -.107E+02 0.412E+01   0.821E-15 0.993E+01 -.451E+01   -.218E-20 0.732E+00 0.392E+00   0.177E-16 0.340E-03 -.255E-03
   -.719E-12 0.107E+02 0.412E+01   -.252E-14 -.993E+01 -.451E+01   0.218E-20 -.732E+00 0.392E+00   0.548E-16 -.340E-03 -.255E-03
   -.716E-12 -.107E+02 -.412E+01   0.111E-14 0.993E+01 0.451E+01   -.218E-20 0.732E+00 -.392E+00   0.176E-15 0.340E-03 0.255E-03
   -.167E-11 0.185E+01 -.136E+02   0.865E-15 -.135E+01 0.131E+02   -.257E-19 -.459E+00 0.581E+00   -.119E-15 -.255E-03 0.553E-03
   -.167E-11 -.185E+01 0.136E+02   -.118E-14 0.135E+01 -.131E+02   0.257E-19 0.459E+00 -.581E+00   -.314E-15 0.255E-03 -.553E-03
   -.122E-11 0.185E+01 0.136E+02   0.100E-14 -.135E+01 -.131E+02   -.257E-19 -.459E+00 -.581E+00   -.291E-15 -.255E-03 -.553E-03
   -.121E-11 -.185E+01 -.136E+02   -.272E-15 0.135E+01 0.131E+02   0.257E-19 0.459E+00 0.581E+00   0.228E-16 0.255E-03 0.553E-03
   -.130E-11 0.382E+00 0.135E+02   0.742E-15 -.811E+00 -.130E+02   -.129E-20 0.432E+00 -.522E+00   -.258E-15 -.360E-04 -.472E-03
   -.130E-11 -.382E+00 -.135E+02   0.113E-14 0.811E+00 0.130E+02   0.129E-20 -.432E+00 0.522E+00   -.281E-16 0.360E-04 0.472E-03
   -.156E-11 0.382E+00 -.135E+02   0.259E-14 -.811E+00 0.130E+02   -.129E-20 0.432E+00 0.522E+00   -.841E-16 -.360E-04 0.472E-03
   -.157E-11 -.382E+00 0.135E+02   -.171E-14 0.811E+00 -.130E+02   0.129E-20 -.432E+00 -.522E+00   -.277E-15 0.360E-04 -.472E-03
   -.155E-11 0.233E+02 0.122E+00   0.144E-14 -.226E+02 -.425E+00   0.139E-20 -.753E+00 0.303E+00   0.238E-15 -.922E-03 -.138E-03
   0.975E-11 0.537E+00 -.295E+02   0.149E-14 -.990E+00 0.276E+02   -.133E-20 0.449E+00 0.195E+01   0.533E-15 -.368E-03 0.189E-02
   0.978E-11 -.537E+00 0.295E+02   -.141E-14 0.990E+00 -.276E+02   0.133E-20 -.449E+00 -.195E+01   0.258E-14 0.368E-03 -.189E-02
   -.396E-12 -.537E+00 -.295E+02   -.127E-13 0.990E+00 0.276E+02   0.134E-20 -.449E+00 0.195E+01   -.139E-14 0.368E-03 0.189E-02
   -.416E-12 0.537E+00 0.295E+02   0.170E-13 -.990E+00 -.276E+02   -.134E-20 0.449E+00 -.195E+01   0.174E-14 -.368E-03 -.189E-02
   0.121E-11 0.299E+02 -.189E+02   -.157E-14 -.283E+02 0.193E+02   -.429E-18 -.157E+01 -.465E+00   0.352E-17 -.196E-02 0.228E-02
   0.119E-11 -.299E+02 0.189E+02   0.843E-14 0.283E+02 -.193E+02   0.429E-18 0.157E+01 0.465E+00   0.417E-15 0.196E-02 -.228E-02
   0.771E-11 0.299E+02 0.189E+02   -.729E-14 -.283E+02 -.193E+02   -.863E-18 -.157E+01 0.465E+00   0.437E-15 -.196E-02 -.228E-02
   0.769E-11 -.299E+02 -.189E+02   0.109E-13 0.283E+02 0.193E+02   0.863E-18 0.157E+01 -.465E+00   0.656E-15 0.196E-02 0.228E-02
   0.220E-10 0.623E+02 0.186E+02   -.102E-13 -.642E+02 -.191E+02   -.223E-18 0.191E+01 0.588E+00   0.620E-14 -.169E-02 -.390E-03
   0.220E-10 -.623E+02 -.186E+02   0.350E-15 0.642E+02 0.191E+02   0.223E-18 -.191E+01 -.588E+00   -.119E-13 0.169E-02 0.390E-03
   0.210E-10 0.623E+02 -.186E+02   -.122E-13 -.642E+02 0.191E+02   -.568E-20 0.191E+01 -.588E+00   -.288E-14 -.169E-02 0.390E-03
   0.210E-10 -.623E+02 0.186E+02   0.334E-14 0.642E+02 -.191E+02   0.568E-20 -.191E+01 0.588E+00   0.740E-14 0.169E-02 -.390E-03
   0.233E-10 0.394E+01 -.807E+02   0.598E-14 -.301E+01 0.826E+02   -.173E-17 -.954E+00 -.189E+01   0.327E-14 0.245E-02 0.495E-02
   0.185E-10 -.394E+01 -.807E+02   0.291E-14 0.301E+01 0.826E+02   0.173E-17 0.954E+00 -.189E+01   -.279E-14 -.245E-02 0.495E-02
   0.185E-10 0.394E+01 0.807E+02   -.385E-14 -.301E+01 -.826E+02   -.173E-17 -.954E+00 0.189E+01   0.110E-14 0.245E-02 -.495E-02
   0.299E-10 -.649E+02 -.264E+02   -.561E-14 0.669E+02 0.270E+02   0.873E-18 -.202E+01 -.628E+00   -.130E-13 0.480E-02 0.424E-02
   0.299E-10 0.649E+02 0.264E+02   0.459E-14 -.669E+02 -.270E+02   -.873E-18 0.202E+01 0.628E+00   0.123E-13 -.480E-02 -.424E-02
   0.269E-10 -.649E+02 0.264E+02   0.359E-14 0.669E+02 -.270E+02   0.174E-17 -.202E+01 0.628E+00   0.129E-13 0.480E-02 -.424E-02
   0.269E-10 0.649E+02 -.264E+02   -.788E-14 -.669E+02 0.270E+02   0.173E-17 0.202E+01 -.628E+00   -.924E-14 -.480E-02 0.424E-02
   0.192E-10 0.654E+02 -.861E+02   -.131E-13 -.674E+02 0.876E+02   -.874E-18 0.206E+01 -.154E+01   -.902E-14 -.950E-02 0.305E-02
   0.192E-10 -.654E+02 0.861E+02   0.163E-13 0.674E+02 -.876E+02   0.874E-18 -.206E+01 0.154E+01   0.407E-14 0.950E-02 -.305E-02
   0.227E-10 0.654E+02 0.861E+02   -.106E-13 -.674E+02 -.876E+02   -.613E-20 0.206E+01 0.154E+01   0.615E-14 -.950E-02 -.305E-02
   0.227E-10 -.654E+02 -.861E+02   0.735E-14 0.674E+02 0.876E+02   0.873E-18 -.206E+01 -.154E+01   -.414E-14 0.950E-02 0.305E-02
   0.293E-10 0.843E+02 0.285E+02   0.182E-13 -.872E+02 -.290E+02   -.861E-20 0.290E+01 0.498E+00   0.595E-14 -.592E-02 -.424E-03
   0.293E-10 -.843E+02 -.285E+02   -.244E-13 0.872E+02 0.290E+02   0.861E-20 -.290E+01 -.498E+00   -.106E-13 0.592E-02 0.424E-03
   0.233E-10 -.394E+01 0.807E+02   -.775E-14 0.301E+01 -.826E+02   0.173E-17 0.954E+00 0.189E+01   0.183E-14 -.245E-02 -.495E-02
   0.274E-10 -.843E+02 0.285E+02   -.154E-13 0.872E+02 -.290E+02   -.185E-19 -.290E+01 0.498E+00   0.830E-14 0.592E-02 -.424E-03
   0.274E-10 0.843E+02 -.285E+02   0.143E-13 -.872E+02 0.290E+02   0.185E-19 0.290E+01 -.498E+00   -.629E-14 -.592E-02 0.424E-03
   0.497E-09 0.748E-09 -.380E-09   -.192E-13 -.568E-13 0.000E+00   0.434E-17 0.000E+00 -.555E-16   0.469E-14 0.362E-12 0.313E-12

 POSITION                                       TOTAL-FORCE (eV/Angst)
      0.98531      2.51290     14.57550         0.000000     -0.018276     -0.000173
      0.98531     10.42370      9.43208         0.000000     -0.018276      0.000173
      2.95594     13.30871      1.42955        -0.000000      0.018276      0.000173
      0.98531      7.71476     14.88029        -0.000000      0.012460     -0.001384
      2.95594      8.10685      1.12477         0.000000     -0.012460      0.001384
      0.98531     15.62556      9.12729        -0.000000      0.012460      0.001384
      2.95594      0.19605      6.87776         0.000000     -0.012460     -0.001384
      0.98531      3.19115      3.73139        -0.000000      0.034595     -0.001413
      2.95594     12.63045     12.27367         0.000000     -0.034595      0.001413
      0.98531     11.10196      4.27114        -0.000000      0.034595      0.001413
      2.95594      4.71965     11.73392         0.000000     -0.034595     -0.001413
      0.98531      2.92635      9.56972        -0.000000      0.003070     -0.001173
      2.95594     12.89525      6.43534         0.000000     -0.003070      0.001173
      0.98531     10.83715     14.43787        -0.000000      0.003070      0.001173
      2.95594      4.98445      1.56719         0.000000     -0.003070     -0.001173
      2.95594      5.39791      6.57298        -0.000000      0.018276     -0.000173
      2.95594      8.92587     12.26958         0.000000     -0.003872     -0.002193
      0.98531      6.89573      3.73548        -0.000000      0.003872      0.002193
      0.98531     14.80654      4.26705        -0.000000      0.003872     -0.002193
      2.95594      1.01507     11.73801         0.000000     -0.003872      0.002193
      0.98531      6.73006      9.44403        -0.000000      0.017543     -0.020883
      2.95594      9.09155      6.56103         0.000000     -0.017543      0.020883
      0.98531     14.64086     14.56356        -0.000000      0.017543      0.020883
      2.95594      1.18074      1.44150         0.000000     -0.017543     -0.020883
      0.98531      6.92457      6.65744         0.000000     -0.001997      0.037142
      2.95594      8.89703      9.34762        -0.000000      0.001997     -0.037142
      0.98531     14.83537      1.34509         0.000000     -0.001997     -0.037142
      2.95594      0.98623     14.65997        -0.000000      0.001997      0.037142
      2.95594      9.21375     14.91556         0.000000     -0.021661      0.006320
      0.98531     14.51866      6.91303        -0.000000      0.021661      0.006320
      2.95594      1.30295      9.09203         0.000000     -0.021661     -0.006320
      0.98531      3.04559     12.11178        -0.000000      0.010143     -0.025483
      2.95594     12.77601      3.89328         0.000000     -0.010143      0.025483
      0.98531     10.95640     11.89581        -0.000000      0.010143      0.025483
      2.95594      4.86521      4.10925         0.000000     -0.010143     -0.025483
      0.98531      6.81636     12.32039        -0.000000      0.011309     -0.034529
      2.95594      9.00524      3.68466         0.000000     -0.011309      0.034529
      0.98531     14.72716     11.68719        -0.000000      0.011309      0.034529
      2.95594      1.09444      4.31787         0.000000     -0.011309     -0.034529
      2.95594      4.83310      9.17381        -0.000000      0.042765      0.000570
      0.98531     10.98851      6.83125         0.000000     -0.042765     -0.000570
      0.98531      6.60785      1.08950        -0.000000      0.021661     -0.006320
      0.98531      3.07771      1.17128         0.000000     -0.042765      0.000570
      2.95594     12.74390     14.83378        -0.000000      0.042765     -0.000570
    total drift:                                0.000000      0.000000     -0.000000

  FREE ENERGIE OF THE ION-ELECTRON SYSTEM (eV)
  free  energy   TOTEN  =      -182.33448566 eV

  energy  without entropy=     -182.33448566  energy(sigma->0) =     -182.33448566

 d Force = 0.2132564E-02[ 0.122E-02, 0.305E-02]  d Energy = 0.1475866E-02 0.657E-03
 d Force = 0.4991978E-01[ 0.317E-01, 0.681E-01]  d Ewald  =-0.3985366E+01 0.404E+01

 reached required accuracy - stopping structural energy minimisation

 total charge

# of ion       s       p       d       tot
    1        0.075   0.129   0.000   0.204
    2        0.075   0.129   0.000   0.204
    3        0.075   0.129   0.000   0.204
    4        0.080   0.140   0.000   0.220
    5        0.080   0.140   0.000   0.220
    6        0.080   0.140   0.000   0.220
    7        0.080   0.140   0.000   0.220
    8        0.062   0.103   0.000   0.165
    9        0.062   0.103   0.000   0.165
   10        0.062   0.103   0.000   0.165
   11        0.062   0.103   0.000   0.165
   12        0.067   0.117   0.000   0.185
   13        0.067   0.117   0.000   0.185
   14        0.067   0.117   0.000   0.185
   15        0.067   0.117   0.000   0.185
   16        0.075   0.129   0.000   0.204
   17        1.843   1.431   0.186   3.461
   18        1.843   1.431   0.186   3.461
   19        1.843   1.431   0.186   3.461
   20        1.843   1.431   0.186   3.461
   21        1.846   1.428   0.185   3.460
   22        1.846   1.428   0.185   3.460
   23        1.846   1.428   0.185   3.460
   24        1.846   1.428   0.185   3.460
   25        1.340   2.388   0.000   3.729
   26        1.340   2.388   0.000   3.729
   27        1.340   2.388   0.000   3.729
   28        1.340   2.388   0.000   3.729
   29        1.325   2.424   0.000   3.749
   30        1.325   2.424   0.000   3.749
   31        1.325   2.424   0.000   3.749
   32        1.331   2.392   0.000   3.722
   33        1.331   2.392   0.000   3.722
   34        1.331   2.392   0.000   3.723
   35        1.331   2.392   0.000   3.723
   36        1.345   2.340   0.000   3.685
   37        1.345   2.340   0.000   3.685
   38        1.345   2.340   0.000   3.685
   39        1.345   2.340   0.000   3.685
   40        1.341   2.373   0.000   3.714
   41        1.341   2.373   0.000   3.714
   42        1.325   2.424   0.000   3.749
   43        1.341   2.373   0.000   3.714
   44        1.341   2.373   0.000   3.714
tot         42.626  61.064   1.486 105.176