 vasp.5.4.4.18Apr17-6-g9f103f2a35 (build Oct 27 2022 13:04:57) complex

 executed on             LinuxIFC date 2024.07.04  07:55:26

 INCAR:
 POTCAR:    PAW_PBE Li 17Jan2003
 POTCAR:    PAW_PBE Sb 06Sep2000
 POTCAR:    PAW_PBE S 06Sep2000

 POTCAR:    PAW_PBE Li 17Jan2003
   VRHFIN =Li: s1p0

   TITEL  = PAW_PBE Li 17Jan2003
   POMASS =    7.010; ZVAL   =    1.000    mass and valenz
   ENMAX  =  140.000; ENMIN  =  100.000 eV

 POTCAR:    PAW_PBE Sb 06Sep2000
   VRHFIN =Sb: s2p3

   TITEL  = PAW_PBE Sb 06Sep2000
   POMASS =  121.750; ZVAL   =    5.000    mass and valenz
   ENMAX  =  172.069; ENMIN  =  129.052 eV

 POTCAR:    PAW_PBE S 06Sep2000
   VRHFIN =S : s2p4

   TITEL  = PAW_PBE S 06Sep2000
   POMASS =   32.066; ZVAL   =    6.000    mass and valenz
   ENMAX  =  258.689; ENMIN  =  194.016 eV

 Optimization of the real space projectors (new method)

 maximal supplied QI-value         = 18.33
 optimisation between [QCUT,QGAM] = [  8.80, 17.60] = [ 21.68, 86.71] Ry
 Optimized for a Real-space Cutoff    1.15 Angstroem

   l    n(q)    QCUT    max X(q) W(low)/X(q) W(high)/X(q)  e(spline)
   0      6     8.799    33.825    0.11E-02    0.11E-02    0.82E-07
   0      6     8.799     8.944    0.75E-03    0.85E-03    0.59E-07
   1      5     8.799     4.214    0.92E-03    0.27E-03    0.41E-07
 Optimization of the real space projectors (new method)

[...]

   l    n(q)    QCUT    max X(q) W(low)/X(q) W(high)/X(q)  e(spline)
   0      7     8.776    19.000    0.12E-02    0.42E-03    0.95E-07
   0      7     8.776     9.057    0.14E-02    0.54E-03    0.11E-06
   1      6     8.776   125.345    0.45E-03    0.22E-02    0.77E-07
   1      6     8.776    79.963    0.45E-03    0.21E-02    0.76E-07
   2      6     8.776     6.963    0.11E-02    0.51E-03    0.39E-07
 Optimization of the real space projectors (new method)

 maximal supplied QI-value         = 19.84
 optimisation between [QCUT,QGAM] = [  8.73, 17.66] = [ 21.34, 87.33] Ry
 Optimized for a Real-space Cutoff    1.22 Angstroem

   l    n(q)    QCUT    max X(q) W(low)/X(q) W(high)/X(q)  e(spline)
   0      6     8.731   187.594    0.15E-02    0.56E-03    0.90E-07
   0      6     8.731   164.243    0.15E-02    0.56E-03    0.89E-07
   1      6     8.731    67.533    0.37E-03    0.20E-02    0.11E-06
   1      6     8.731    50.729    0.36E-03    0.19E-02    0.10E-06
  PAW_PBE Li 17Jan2003                  :
  PAW_PBE Sb 06Sep2000                  :
  PAW_PBE S 06Sep2000                   :

 POSCAR: Li4 Sb4 S8
  positions in direct lattice
 exchange correlation table for  LEXCH =        8
   RHO(1)=    0.500       N(1)  =     2000
   RHO(2)=  100.500       N(2)  =     4000

 ion  position               nearest neighbor table
   1  0.517  0.738  0.881-
   2  0.483  0.262  0.119-
   3  0.984  0.737  0.619-
   4  0.016  0.263  0.381-
   5  0.037  0.796  0.121-  11 2.58  16 2.58  14 2.90  12 2.93
   6  0.963  0.204  0.879-  12 2.58  15 2.58  13 2.90  11 2.93
   7  0.463  0.795  0.379-   9 2.58  14 2.58  16 2.90  10 2.93
   8  0.537  0.205  0.621-  10 2.58  13 2.58  15 2.90   9 2.93
   9  0.517  0.186  0.384-   7 2.58   8 2.93
  10  0.483  0.814  0.616-   8 2.58   7 2.93
  11  0.983  0.186  0.115-   5 2.58   6 2.93
  12  0.017  0.814  0.885-   6 2.58   5 2.93
  13  0.932  0.230  0.645-   8 2.58   6 2.90
  14  0.068  0.770  0.355-   7 2.58   5 2.90
  15  0.568  0.231  0.855-   6 2.58   8 2.90
  16  0.432  0.769  0.145-   5 2.58   7 2.90

  LATTYP: Found a triclinic cell.
 ALAT       =     6.5798618772
 B/A-ratio  =     2.2511181413
 C/A-ratio  =     0.9954268990
 COS(alpha) =     0.0001051169
 COS(beta)  =     0.0013766762
 COS(gamma) =     0.5517367503

  Lattice vectors:

 A1 = (   6.4569994200,   0.7907541400,  -0.9881541900)
 A2 = (   6.3097297400,  -0.2637628100, -13.3983006200)
 A3 = (  -0.8651498400,   6.4702543800,  -0.5355658400)

Analysis of symmetry for initial positions (statically):
 Subroutine PRICEL returns:
 Original cell was already a primitive cell.

 Routine SETGRP: Setting up the symmetry group for a
 triclinic supercell.

 Subroutine GETGRP returns: Found  2 space group operations
 (whereof  2 operations were pure point group operations)
 out of a pool of  2 trial point group operations.

The static configuration has the point symmetry S_2 .

Analysis of symmetry for dynamics (positions and initial velocities):
 Subroutine PRICEL returns:
 Original cell was already a primitive cell.

 Routine SETGRP: Setting up the symmetry group for a
 triclinic supercell.

 Subroutine GETGRP returns: Found  2 space group operations
 (whereof  2 operations were pure point group operations)
 out of a pool of  2 trial point group operations.

The dynamic configuration has the point symmetry S_2 .

 Subroutine INISYM returns: Found  2 space group operations
 (whereof  2 operations are pure point group operations),
 and found     1 'primitive' translations

 KPOINTS: pymatgen with grid density = 807 / numbe

Automatic generation of k-mesh.
Space group operators:
 irot       det(A)        alpha          n_x          n_y          n_z        tau_x        tau_y        tau_z
    1     1.000000     0.000000     1.000000     0.000000     0.000000     0.000000     0.000000     0.000000
    2    -1.000000     0.000000     1.000000     0.000000     0.000000     0.000000     0.000000     0.000000

 Subroutine IBZKPT returns following result:

 Found      9 irreducible k-points:

 Following reciprocal coordinates:
            Coordinates               Weight
  0.000000  0.000000  0.250000      2.000000
  0.333333 -0.000000  0.250000      2.000000
 -0.333333 -0.000000  0.250000      2.000000
 -0.000000  0.333333  0.250000      2.000000
  0.333333  0.333333  0.250000      2.000000
 -0.333333  0.333333  0.250000      2.000000
 -0.000000 -0.333333  0.250000      2.000000
  0.333333 -0.333333  0.250000      2.000000
 -0.333333 -0.333333  0.250000      2.000000

 Following cartesian coordinates:
            Coordinates               Weight
  0.002803  0.002025  0.019939      2.000000
  0.053431  0.008698  0.018772      2.000000
 -0.047824 -0.004648  0.021107      2.000000
 -0.003993  0.052287  0.015749      2.000000
  0.046634  0.058960  0.014581      2.000000
 -0.054621  0.045615  0.016917      2.000000
  0.009600 -0.048237  0.024130      2.000000
  0.060228 -0.041564  0.022962      2.000000
 -0.041028 -0.054910  0.025297      2.000000

 SYSTEM =  CIS
 POSCAR =  Li4 Sb4 S8

 Startparameter for this run:
   NWRITE =      2    write-flag & timer
   PREC   = medium    normal or accurate (medium, high low for compatibility)
   ISTART =      0    job   : 0-new  1-cont  2-samecut
   ICHARG =      2    charge: 1-file 2-atom 10-const
   ISPIN  =      1    spin polarized calculation?
   LNONCOLLINEAR =      F non collinear calculations
   LSORBIT =      F    spin-orbit coupling
   INIWAV =      1    electr: 0-lowe 1-rand  2-diag
   LASPH  =      T    aspherical Exc in radial PAW
   METAGGA=      F    non-selfconsistent MetaGGA calc.

 Electronic Relaxation 1
   ENCUT  =  300.0 eV  22.05 Ry    4.70 a.u.   9.29  9.25 17.59*2*pi/ulx,y,z
   ENINI  =  300.0     initial cutoff
   ENAUG  =  380.5 eV  augmentation charge cutoff
   NELM   =     60;   NELMIN=  2; NELMDL= -5     # of ELM steps
   EDIFF  = 0.1E-03   stopping-criterion for ELM
   LREAL  =      T    real-space projection
   NLSPLINE    = F    spline interpolate recip. space projectors
   LCOMPAT=      F    compatible to vasp.4.4
   GGA_COMPAT  = T    GGA compatible to vasp.4.4-vasp.4.6
   LMAXPAW     = -100 max onsite density
   LMAXMIX     =    4 max onsite mixed and CHGCAR
   VOSKOWN=      0    Vosko Wilk Nusair interpolation
   ROPT   =   -0.00200  -0.00200  -0.00200
 Ionic relaxation
   EDIFFG = -.5E-01   stopping-criterion for IOM
   NSW    =     99    number of steps for IOM
   NBLOCK =      1;   KBLOCK =     99    inner block; outer block
   IBRION =      2    ionic relax: 0-MD 1-quasi-New 2-CG
   NFREE  =      1    steps in history (QN), initial steepest desc. (CG)
   ISIF   =      3    stress and relaxation
   IWAVPR =     11    prediction:  0-non 1-charg 2-wave 3-comb
   ISYM   =      2    0-nonsym 1-usesym 2-fastsym
   LCORR  =      T    Harris-Foulkes like correction to forces

   POTIM  = 0.1000    time-step for ionic-motion
   TEIN   =    0.0    initial temperature
   TEBEG  =    0.0;   TEEND  =   0.0 temperature during run
   SMASS  =  -3.00    Nose mass-parameter (am)
   estimated Nose-frequenzy (Omega)   =  0.10E-29 period in steps =****** mass=  -0.989E-27a.u.
   SCALEE = 1.0000    scale energy and forces
   NPACO  =    256;   APACO  = 16.0  distance and # of slots for P.C.
   PSTRESS=    0.0 pullay stress

  Mass of Ions in am
   POMASS =   7.01121.75 32.07
  Ionic Valenz
   ZVAL   =   1.00  5.00  6.00
  Atomic Wigner-Seitz radii
  virtual crystal weights
   VCA    =   1.00  1.00  1.00
   NELECT =      72.0000    total number of electrons
   NUPDOWN=      -1.0000    fix difference up-down

 DOS related values:
   EMIN   =  10.00;   EMAX   =-10.00  energy-range for DOS
   EFERMI =   0.00
   ISMEAR =     0;   SIGMA  =   0.05  broadening in eV -4-tet -1-fermi 0-gaus

 Electronic relaxation 2 (details)
   IALGO  =     38    algorithm
   LDIAG  =      T    sub-space diagonalisation (order eigenvalues)
   LSUBROT=      F    optimize rotation matrix (better conditioning)
   TURBO    =      0    0=normal 1=particle mesh
   IRESTART =      0    0=no restart 2=restart with 2 vectors
   NREBOOT  =      0    no. of reboots
   NMIN     =      0    reboot dimension
   EREF     =   0.00    reference energy to select bands
   IMIX   =      4    mixing-type and parameters
     AMIX     =   0.40;   BMIX     =  1.00
     AMIX_MAG =   1.60;   BMIX_MAG =  1.00
     AMIN     =   0.10
     WC   =   100.;   INIMIX=   1;  MIXPRE=   1;  MAXMIX= -45

 Intra band minimization:
   WEIMIN = 0.0010     energy-eigenvalue tresh-hold
   EBREAK =  0.45E-06  absolut break condition
   DEPER  =   0.30     relativ break condition

   TIME   =   0.40     timestep for ELM

  volume/ion in A,a.u.               =      33.27       224.55
  Fermi-wavevector in a.u.,A,eV,Ry     =   0.840313  1.587962  9.607437  0.706127
  Thomas-Fermi vector in A             =   1.954675

 Write flags
   LWAVE        =      F    write WAVECAR
   LDOWNSAMPLE  =      F    k-point downsampling of WAVECAR
   LCHARG       =      F    write CHGCAR
   LVTOT        =      F    write LOCPOT, total local potential
   LVHAR        =      F    write LOCPOT, Hartree potential only
   LELF         =      F    write electronic localiz. function (ELF)
   LORBIT       =     10    0 simple, 1 ext, 2 COOP (PROOUT), +10 PAW based schemes

 Dipole corrections
   LMONO  =      F    monopole corrections only (constant potential shift)
   LDIPOL =      F    correct potential (dipole corrections)
   IDIPOL =      0    1-x, 2-y, 3-z, 4-all directions
   EPSILON=  1.0000000 bulk dielectric constant

 Exchange correlation treatment:
   GGA     =    --    GGA type
   VOSKOWN=      0    Vosko Wilk Nusair interpolation
   LHFCALC =     F    Hartree Fock is set to
   LHFONE  =     F    Hartree Fock one center treatment
   AEXX    =    0.0000 exact exchange contribution

[...]

[...]

 d Force = 0.7428117E-01[ 0.558E-01, 0.928E-01]  d Energy = 0.7448357E+00-0.671E+00
 d Force =-0.6304582E+01[-0.644E+01,-0.617E+01]  d Ewald  = 0.1946724E+02-0.258E+02

 Steepest descent step on ions:
 trial-energy change:   -0.744836  1 .order   -0.737267   -0.816639   -0.657894
  (g-gl).g = 0.817E+00      g.g   = 0.817E+00  gl.gl    = 0.000E+00
 g(Force)  = 0.939E-01   g(Stress)= 0.723E+00 ortho     = 0.000E+00
 gamma     =   0.00000
 trial     =   1.00000
 opt step  =   3.17253  (harmonic =   5.14435) maximal distance =0.02806562
 next E    =   -65.229807   (d E  =  -1.53710)

[...]

 d Force = 0.1071304E-01[-0.979E-01, 0.119E+00]  d Energy = 0.1013849E+01-0.100E+01
 d Force =-0.1444095E+02[-0.151E+02,-0.138E+02]  d Ewald  = 0.4346592E+02-0.579E+02

[...]

 d Force =-0.9164309E+00[-0.164E+01,-0.190E+00]  d Energy =-0.1728267E+01 0.812E+00
 d Force =-0.3234176E+02[-0.354E+02,-0.293E+02]  d Ewald  = 0.9207563E+02-0.124E+03

[...]

 d Force = 0.9145406E+00[ 0.304E+00, 0.153E+01]  d Energy = 0.1855545E+01-0.941E+00
 d Force = 0.3042603E+02[ 0.280E+02, 0.329E+02]  d Ewald  =-0.7582273E+02 0.106E+03

[...]

 d Force =-0.2782370E-01[-0.315E-01,-0.241E-01]  d Energy = 0.1126140E-01-0.391E-01
 d Force =-0.2236082E+01[-0.225E+01,-0.222E+01]  d Ewald  = 0.6250721E+01-0.849E+01

[...]

 d Force = 0.1869499E+00[ 0.177E+00, 0.197E+00]  d Energy = 0.2505935E+00-0.636E-01
 d Force = 0.1258698E+02[ 0.125E+02, 0.127E+02]  d Ewald  = 0.2758624E+02-0.150E+02

 Conjugate gradient step on ions:
 trial-energy change:   -0.250593  1 .order   -0.249928   -0.264582   -0.235274
  (g-gl).g = 0.173E+00      g.g   = 0.163E+00  gl.gl    = 0.817E+00
 g(Force)  = 0.143E+00   g(Stress)= 0.204E-01 ortho     =-0.947E-02
 gamma     =   0.21174
 trial     =   1.63895
 opt step  =   6.55581  (harmonic =  14.79610) maximal distance =0.05384196
 next E    =   -66.440976   (d E  =  -0.85104)

[...]

 E-fermi :   3.9041     XC(G=0):  -8.6475     alpha+bet : -9.8764

[...]

 E-fermi :   3.9512     XC(G=0):  -8.7212     alpha+bet :-10.0074

[...]

 Conjugate gradient step on ions:
 trial-energy change:   -0.307424  1 .order   -0.307018   -0.334812   -0.279224
  (g-gl).g = 0.287E+00      g.g   = 0.343E+00  gl.gl    = 0.163E+00
 g(Force)  = 0.147E+00   g(Stress)= 0.196E+00 ortho     = 0.206E-01
 gamma     =   1.75409
 trial     =   0.88353
 opt step  =   3.53411  (harmonic =   5.32161) maximal distance =0.07317736
 next E    =   -67.956092   (d E  =  -1.00831)

[...]

 d Force =-0.2910575E-01[-0.456E-01,-0.127E-01]  d Energy = 0.2841204E-01-0.575E-01
 d Force =-0.1104728E+02[-0.119E+02,-0.102E+02]  d Ewald  =-0.2900336E+02 0.180E+02

[...]

 d Force = 0.9108624E-01[-0.324E-01, 0.215E+00]  d Energy =-0.3487800E-01 0.126E+00
 d Force = 0.7258539E+01[ 0.238E+01, 0.121E+02]  d Ewald  =-0.2837234E+01 0.101E+02

[...]

 d Force =-0.6011231E-02[-0.291E-01, 0.171E-01]  d Energy = 0.7307563E-01-0.791E-01
 d Force =-0.2577634E+01[-0.387E+01,-0.128E+01]  d Ewald  = 0.2756016E+01-0.533E+01

[...]

 d Force = 0.8653694E-02[-0.132E-01, 0.305E-01]  d Energy = 0.2711688E-01-0.185E-01
 d Force =-0.6116154E+00[-0.174E+01, 0.512E+00]  d Ewald  = 0.1958989E+02-0.202E+02

[...]

 d Force = 0.1418159E-02[-0.694E-03, 0.353E-02]  d Energy = 0.3537478E-02-0.212E-02
 d Force = 0.3796805E+00[ 0.298E+00, 0.461E+00]  d Ewald  =-0.4991233E+01 0.537E+01

[...]

 d Force = 0.1017563E-01[ 0.905E-02, 0.113E-01]  d Energy = 0.2053776E-01-0.104E-01
 d Force =-0.5090585E+00[-0.518E+00,-0.500E+00]  d Ewald  =-0.3492287E+01 0.298E+01

[...]

 d Force =-0.1686033E-03[-0.193E-03,-0.144E-03]  d Energy = 0.7234428E-04-0.241E-03
 d Force = 0.1075096E+00[ 0.107E+00, 0.108E+00]  d Ewald  = 0.2328660E+00-0.125E+00

[...]

 d Force = 0.1048189E-02[ 0.677E-03, 0.142E-02]  d Energy = 0.6501950E-03 0.398E-03
 d Force =-0.8649171E-01[-0.903E-01,-0.827E-01]  d Ewald  =-0.7898099E+00 0.703E+00

[...]

 d Force = 0.2076626E-03[ 0.181E-03, 0.234E-03]  d Energy = 0.1525346E-03 0.551E-04
 d Force =-0.1821251E-01[-0.188E-01,-0.176E-01]  d Ewald  = 0.2156414E+00-0.234E+00

[...]

 d Force =-0.2792725E-03[-0.922E-03, 0.363E-03]  d Energy =-0.2188703E-03-0.604E-04
 d Force =-0.3995519E-01[-0.423E-01,-0.376E-01]  d Ewald  = 0.4280291E+00-0.468E+00

[...]

 d Force = 0.1738979E-03[-0.321E-03, 0.668E-03]  d Energy = 0.2973704E-03-0.123E-03
 d Force = 0.2948034E-01[ 0.282E-01, 0.307E-01]  d Ewald  =-0.3095697E+00 0.339E+00

[...]

 d Force = 0.3590037E-04[-0.887E-04, 0.160E-03]  d Energy =-0.5654788E-04 0.924E-04
 d Force =-0.1440824E-01[-0.147E-01,-0.141E-01]  d Ewald  = 0.1550817E+00-0.169E+00

[...]

 d Force = 0.3006042E-03[-0.295E-02, 0.355E-02]  d Energy = 0.1523762E-03 0.148E-03
 d Force = 0.2225384E+00[ 0.209E+00, 0.236E+00]  d Ewald  = 0.6921210E+00-0.470E+00

[...]

 d Force = 0.6845232E-03[-0.495E-04, 0.142E-02]  d Energy = 0.1027980E-02-0.343E-03
 d Force =-0.1038371E+00[-0.107E+00,-0.101E+00]  d Ewald  =-0.3305399E+00 0.227E+00

[...]

 Conjugate gradient step on ions:
 trial-energy change:   -0.000805  1 .order   -0.000875   -0.001206   -0.000543
  (g-gl).g = 0.704E-03      g.g   = 0.634E-03  gl.gl    = 0.611E-03
 g(Force)  = 0.361E-03   g(Stress)= 0.273E-03 ortho     =-0.301E-04
 gamma     =   1.15272
 trial     =   2.01365
 opt step  =   3.66374  (harmonic =   3.66374) maximal distance =0.00505867
 next E    =   -68.761959   (d E  =  -0.00110)

[...]

 d Force = 0.1530244E-03[ 0.529E-04, 0.253E-03]  d Energy = 0.2157894E-03-0.628E-04
 d Force = 0.7383514E-01[ 0.729E-01, 0.748E-01]  d Ewald  =-0.3026021E+00 0.376E+00

[...]

 eigenvalue-minimisations  :  1316
 total energy-change (2. order) :-0.1001136E-03  (-0.2797330E-03)
 number of electron      71.9999989 magnetization
 augmentation part       -9.8883118 magnetization

 Broyden mixing:
  rms(total) = 0.54567E-02    rms(broyden)= 0.54564E-02
  rms(prec ) = 0.68122E-02
  weight for this iteration     100.00

 eigenvalues of (default mixing * dielectric matrix)
  average eigenvalue GAMMA=   0.9014
  0.9014

[...]

--------------------------------------- Iteration     57(   3)  ---------------------------------------

 eigenvalue-minimisations  :   770
 total energy-change (2. order) : 0.6560367E-04  (-0.7441439E-05)
 number of electron      71.9999989 magnetization
 augmentation part       -9.8883118 magnetization

 Free energy of the ion-electron system (eV)
  alpha Z        PSCENC =        36.18196681
  Ewald energy   TEWEN  =     -2681.27085646
  -Hartree energ DENC   =      -384.27312286
  -exchange      EXHF   =         0.00000000
  -V(xc)+E(xc)   XCENC  =       -98.23169568
  PAW double counting   =      5470.56554687    -5208.21511978
  entropy T*S    EENTRO =        -0.00000000
  eigenvalues    EBANDS =       -39.04143131
  atomic energy  EATOM  =      2835.52185083
  Solvation  Ediel_sol  =         0.00000000
  free energy    TOTEN  =       -68.76286159 eV

  energy without entropy =      -68.76286159  energy(sigma->0) =      -68.76286159

 average (electrostatic) potential at core
  the test charge radii are     0.9748  1.1712  0.9698
  (the norm of the test charge is              1.0000)
       1 -25.0608       2 -25.0608       3 -25.0584       4 -25.0584       5 -88.2987
       6 -88.2987       7 -88.2966       8 -88.2966       9 -86.1175      10 -86.1175
      11 -86.1175      12 -86.1175      13 -86.0782      14 -86.0782      15 -86.0784
      16 -86.0784

 E-fermi :   4.8947     XC(G=0):  -9.3168     alpha+bet :-11.2010

[...]

 k-point     9 :      -0.3333   -0.3333    0.2500
  band No.  band energies     occupation
      1      -8.3003      2.00000
      2      -8.0386      2.00000
      3      -7.6295      2.00000
      4      -7.3188      2.00000
      5      -7.2856      2.00000
      6      -7.2775      2.00000
      7      -7.2176      2.00000
      8      -7.1052      2.00000
      9      -4.7398      2.00000
     10      -4.3729      2.00000
     11      -3.9929      2.00000
     12      -3.8215      2.00000
     13       0.3061      2.00000
     14       0.7584      2.00000
     15       1.0728      2.00000
     16       1.3970      2.00000
     17       1.4221      2.00000
     18       1.4889      2.00000
     19       1.5772      2.00000
     20       1.6523      2.00000
     21       1.9224      2.00000
     22       2.1723      2.00000
     23       2.2560      2.00000
     24       2.4801      2.00000
     25       2.5713      2.00000
     26       2.6387      2.00000
     27       2.9210      2.00000
     28       3.3126      2.00000
     29       3.5406      2.00000
     30       3.5818      2.00000
     31       3.6629      2.00000
     32       3.8371      2.00000
     33       3.9420      2.00000
     34       3.9523      2.00000
     35       4.3397      2.00000
     36       4.6111      2.00000
     37       6.7969      0.00000
     38       6.9055      0.00000
     39       6.9367      0.00000
     40       7.0340      0.00000
     41       7.2626      0.00000
     42       7.2897      0.00000
     43       7.6262      0.00000
     44       7.6930      0.00000
     45       7.7499      0.00000
     46       7.9955      0.00000
     47       8.2425      0.00000
     48       8.3282      0.00000
     49      10.4040      0.00000
     50      10.4722      0.00000
     51      10.4751      0.00000
     52      10.6259      0.00000
     53      10.9144      0.00000
     54      10.9393      0.00000
     55      11.1741      0.00000
     56      11.2301      0.00000

 soft charge-density along one line, spin component           1
         0         1         2         3         4         5         6         7         8         9
 total charge-density along one line

------------------------ aborting loop because EDIFF is reached ----------------------------------------

[...]

  FORCE on cell =-STRESS in cart. coord.  units (eV):
  Direction    XX          YY          ZZ          XY          YZ          ZX
  Alpha Z    36.18197    36.18197    36.18197
  Ewald    -883.92185  -884.88676  -912.46845    -0.39892    -3.58264    -0.59460
  Hartree   126.03378   126.07507   132.13420    -0.04157    -0.25173     0.82520
  E(xc)    -256.77614  -256.72041  -256.24410    -0.00483     0.04649     0.04951
  Local    -518.40266  -517.00472  -495.20605     0.32154     3.91976     0.00192
  n-local   919.39824   918.87465   911.54517    -0.03517    -0.84053    -0.43769
  augment  -210.24500  -210.19397  -208.75542    -0.00551     0.13991     0.14458
  Kinetic   787.71211   787.78093   792.83121     0.12126     0.35294     0.08068
  Fock        0.00000     0.00000     0.00000     0.00000     0.00000     0.00000
  Total      -0.01955     0.10675     0.01853    -0.04321    -0.21581     0.06961
  in kB      -0.09596     0.52390     0.09092    -0.21207    -1.05910     0.34159

 VOLUME and BASIS-vectors are now :
  energy-cutoff  :      300.00
  volume of cell :      326.47
      direct lattice vectors                 reciprocal lattice vectors
     5.332988922  0.676926893 -0.463961709     0.183132392  0.023344651 -0.016282290
    -0.719364168  5.336862318 -0.439231339    -0.024537668  0.182806926 -0.015329249
     0.854913519  1.046927438 11.116526505     0.006673731  0.008197305  0.088670913

  length of vectors
     5.395763276  5.403009196 11.198397016     0.185330944  0.185082293  0.089298742

 FORCES acting on ions
    electron-ion (+dipol)            ewald-force                    non-local-force                 convergence-correction
   0.111E+00 0.640E-02 0.160E+00   -.997E-01 -.121E-01 -.139E+00   -.233E-01 0.421E-02 -.187E-01   -.992E-04 -.962E-04 -.479E-03
   -.111E+00 -.640E-02 -.160E+00   0.997E-01 0.121E-01 0.139E+00   0.233E-01 -.421E-02 0.187E-01   0.992E-04 0.962E-04 0.479E-03
   -.725E-01 0.902E-02 -.140E+00   0.667E-01 -.168E-02 0.123E+00   0.169E-01 -.762E-02 0.136E-01   0.486E-04 0.113E-03 -.379E-03
   0.725E-01 -.902E-02 0.140E+00   -.667E-01 0.168E-02 -.123E+00   -.169E-01 0.762E-02 -.136E-01   -.486E-04 -.113E-03 0.379E-03
   0.808E+00 0.956E+00 -.644E+00   -.118E+01 -.128E+01 0.916E+00   0.360E+00 0.343E+00 -.285E+00   0.478E-02 0.155E-02 0.168E-02
   -.808E+00 -.956E+00 0.644E+00   0.118E+01 0.128E+01 -.916E+00   -.360E+00 -.343E+00 0.285E+00   -.478E-02 -.155E-02 -.168E-02
   -.803E+00 -.963E+00 0.779E+00   0.117E+01 0.128E+01 -.108E+01   -.337E+00 -.336E+00 0.319E+00   -.420E-02 -.317E-03 0.336E-02
   0.803E+00 0.963E+00 -.779E+00   -.117E+01 -.128E+01 0.108E+01   0.337E+00 0.336E+00 -.319E+00   0.420E-02 0.317E-03 -.336E-02
   0.133E+01 0.351E+01 0.239E+02   -.138E+01 -.377E+01 -.257E+02   0.325E-01 0.239E+00 0.175E+01   0.838E-02 0.341E-02 0.368E-02
   -.133E+01 -.351E+01 -.239E+02   0.138E+01 0.377E+01 0.257E+02   -.325E-01 -.239E+00 -.175E+01   -.838E-02 -.341E-02 -.368E-02
   -.132E+01 -.351E+01 -.238E+02   0.138E+01 0.377E+01 0.255E+02   -.442E-01 -.245E+00 -.175E+01   -.651E-02 -.411E-02 0.230E-03
   0.132E+01 0.351E+01 0.238E+02   -.138E+01 -.377E+01 -.255E+02   0.442E-01 0.245E+00 0.175E+01   0.651E-02 0.411E-02 -.230E-03
   -.125E-02 0.202E+01 0.221E+02   0.791E-01 -.216E+01 -.238E+02   -.364E-01 0.164E+00 0.162E+01   -.157E-01 -.573E-02 -.139E-02
   0.125E-02 -.202E+01 -.221E+02   -.791E-01 0.216E+01 0.238E+02   0.364E-01 -.164E+00 -.162E+01   0.157E-01 0.573E-02 0.139E-02
   -.178E-02 -.204E+01 -.222E+02   -.738E-01 0.219E+01 0.238E+02   0.407E-01 -.171E+00 -.160E+01   0.148E-01 0.358E-02 -.287E-02
   0.178E-02 0.204E+01 0.222E+02   0.738E-01 -.219E+01 -.238E+02   -.407E-01 0.171E+00 0.160E+01   -.148E-01 -.358E-02 0.287E-02
   0.545E-11 -.233E-11 0.467E-10   0.205E-14 -.266E-14 0.355E-14   -.694E-16 0.278E-16 0.000E+00   -.123E-12 0.489E-12 -.334E-12

 POSITION                                       TOTAL-FORCE (eV/Angst)
      2.89469      5.26187      9.17659        -0.011800     -0.001567      0.001523
      2.57384      1.79885      1.03675         0.011800      0.001567     -0.001523
      5.30705      5.33035      6.14726         0.011124     -0.000177     -0.003443
      0.16149      1.73037      4.06607        -0.011124      0.000177      0.003443
     -0.43079      4.13264      1.04609        -0.006599      0.016994     -0.011896
      0.56634      2.25115      9.63121         0.006599     -0.016994      0.011896
      2.44711      4.73572      3.62145         0.029738     -0.020309      0.023946
      3.02142      2.32500      6.59189        -0.029738      0.020309     -0.023946
      2.82264      2.08174      3.84390        -0.010880     -0.017381     -0.003454
      2.64590      4.97898      6.36943         0.010880      0.017381      0.003454
      5.24801      2.12670      0.79995         0.004289      0.016515     -0.001414
      0.22053      4.93402      9.41338        -0.004289     -0.016515      0.001414
      5.67365      2.66132      6.39841         0.025715      0.014778     -0.011319
     -0.20511      4.39939      3.81492        -0.025715     -0.014778      0.011319
      3.24696      2.59298      9.36041        -0.020117     -0.016527      0.020965
      2.22157      4.46774      0.85292         0.020117      0.016527     -0.020965
    total drift:                                0.000000     -0.000000      0.000000

  FREE ENERGIE OF THE ION-ELECTRON SYSTEM (eV)
  free  energy   TOTEN  =       -68.76286159 eV

  energy  without entropy=      -68.76286159  energy(sigma->0) =      -68.76286159

 d Force = 0.7428137E-03[ 0.316E-03, 0.117E-02]  d Energy = 0.9790978E-03-0.236E-03
 d Force = 0.6786751E-01[ 0.662E-01, 0.695E-01]  d Ewald  = 0.2543128E+00-0.186E+00

 Conjugate gradient step on ions:
 trial-energy change:   -0.000979  1 .order   -0.001017   -0.001616   -0.000417
  (g-gl).g = 0.278E-03      g.g   = 0.670E-03  gl.gl    = 0.634E-03
 g(Force)  = 0.485E-03   g(Stress)= 0.185E-03 ortho     = 0.443E-04
 gamma     =   0.43857
 trial     =   2.34367
 opt step  =   3.15971  (harmonic =   3.15971) maximal distance =0.00303096
 next E    =   -68.762972   (d E  =  -0.00109)

 reached required accuracy - stopping structural energy minimisation

 total charge

# of ion       s       p       d       tot
    1        0.060   0.101   0.000   0.162
    2        0.060   0.101   0.000   0.162
    3        0.060   0.101   0.000   0.162
    4        0.060   0.101   0.000   0.162
    5        1.308   0.882   0.070   2.259
    6        1.308   0.882   0.070   2.259
    7        1.308   0.882   0.070   2.259
    8        1.308   0.882   0.070   2.259
    9        1.354   2.342   0.000   3.696
   10        1.354   2.342   0.000   3.696
   11        1.354   2.342   0.000   3.696
   12        1.354   2.342   0.000   3.696
   13        1.353   2.343   0.000   3.696
   14        1.353   2.343   0.000   3.696
   15        1.353   2.343   0.000   3.696
   16        1.353   2.343   0.000   3.696
tot         16.299  22.675   0.279  39.252