 vasp.5.4.4.18Apr17-6-g9f103f2a35 (build Oct 27 2022 13:04:57) complex

 executed on             LinuxIFC date 2024.07.04  02:33:44

 INCAR:
 POTCAR:    PAW_PBE Li 17Jan2003
 POTCAR:    PAW_PBE Bi 08Apr2002
 POTCAR:    PAW_PBE Se 06Sep2000

 POTCAR:    PAW_PBE Li 17Jan2003
   VRHFIN =Li: s1p0

   TITEL  = PAW_PBE Li 17Jan2003
   POMASS =    7.010; ZVAL   =    1.000    mass and valenz
   ENMAX  =  140.000; ENMIN  =  100.000 eV

 POTCAR:    PAW_PBE Bi 08Apr2002
   VRHFIN =Bi:

   TITEL  = PAW_PBE Bi 08Apr2002
   POMASS =  208.980; ZVAL   =    5.000    mass and valenz
   ENMAX  =  105.037; ENMIN  =   78.777 eV

 POTCAR:    PAW_PBE Se 06Sep2000
   VRHFIN =Se: s2p4

   TITEL  = PAW_PBE Se 06Sep2000
   POMASS =   78.960; ZVAL   =    6.000    mass and valenz
   ENMAX  =  211.555; ENMIN  =  158.666 eV

 Optimization of the real space projectors (new method)

 maximal supplied QI-value         = 18.33
 optimisation between [QCUT,QGAM] = [  8.80, 17.60] = [ 21.68, 86.71] Ry
 Optimized for a Real-space Cutoff    1.15 Angstroem

   l    n(q)    QCUT    max X(q) W(low)/X(q) W(high)/X(q)  e(spline)
   0      6     8.799    33.825    0.11E-02    0.11E-02    0.82E-07
   0      6     8.799     8.944    0.75E-03    0.85E-03    0.59E-07
   1      5     8.799     4.214    0.92E-03    0.27E-03    0.41E-07
 Optimization of the real space projectors (new method)

[...]

   l    n(q)    QCUT    max X(q) W(low)/X(q) W(high)/X(q)  e(spline)
   0      8     8.855    93.365    0.12E-03    0.22E-03    0.92E-07
   0      8     8.855    75.373    0.13E-03    0.24E-03    0.10E-06
   1      8     8.855    32.978    0.17E-02    0.62E-03    0.17E-06
   1      8     8.855    35.433    0.19E-02    0.68E-03    0.19E-06
   2      7     8.855     8.108    0.22E-03    0.34E-03    0.64E-07
 Optimization of the real space projectors (new method)

 maximal supplied QI-value         = 17.95
 optimisation between [QCUT,QGAM] = [  8.80, 17.59] = [ 21.67, 86.68] Ry
 Optimized for a Real-space Cutoff    1.19 Angstroem

   l    n(q)    QCUT    max X(q) W(low)/X(q) W(high)/X(q)  e(spline)
   0      6     8.797   133.320    0.14E-02    0.11E-02    0.95E-07
   0      6     8.797   111.601    0.15E-02    0.12E-02    0.10E-06
   1      6     8.797    47.222    0.19E-02    0.96E-03    0.11E-06
   1      6     8.797    33.775    0.19E-02    0.99E-03    0.11E-06
   2      5     8.797     3.720    0.16E-02    0.14E-02    0.40E-07
  PAW_PBE Li 17Jan2003                  :
  PAW_PBE Bi 08Apr2002                  :
  PAW_PBE Se 06Sep2000                  :

 POSCAR: Li4 Bi8 Se14
  positions in direct lattice
 exchange correlation table for  LEXCH =        8
   RHO(1)=    0.500       N(1)  =     2000
   RHO(2)=  100.500       N(2)  =     4000

 ion  position               nearest neighbor table
   1  0.250  0.568  0.812-
   2  0.750  0.432  0.188-
   3  0.750  0.829  0.623-
   4  0.250  0.171  0.377-
   5  0.250  0.946  0.880-  18 2.80  19 2.93  19 2.93  26 3.02  26 3.02  25 3.17
   6  0.750  0.054  0.120-  17 2.80  20 2.93  20 2.93  25 3.02  25 3.02  26 3.17
   7  0.250  0.832  0.275-  21 2.85  23 2.91  23 2.91  17 3.00  17 3.00  25 3.06
   8  0.750  0.168  0.725-  22 2.85  24 2.91  24 2.91  18 3.00  18 3.00  26 3.06
   9  0.750  0.731  0.051-  15 2.79  15 2.79  23 2.96  19 2.98  25 3.21  25 3.21
  10  0.250  0.269  0.949-  16 2.79  16 2.79  24 2.96  20 2.98  26 3.21  26 3.21
  11  0.750  0.607  0.428-  14 2.84  21 2.96  21 2.96  13 2.99  13 2.99  23 3.05
  12  0.250  0.393  0.572-  13 2.84  22 2.96  22 2.96  14 2.99  14 2.99  24 3.05
  13  0.250  0.458  0.393-  12 2.84  11 2.99  11 2.99
  14  0.750  0.542  0.607-  11 2.84  12 2.99  12 2.99
  15  0.250  0.598  0.038-   9 2.79   9 2.79
  16  0.750  0.402  0.962-  10 2.79  10 2.79
  17  0.750  0.986  0.295-   6 2.80   7 3.00   7 3.00
  18  0.250  0.014  0.705-   5 2.80   8 3.00   8 3.00
  19  0.750  0.798  0.863-   5 2.93   5 2.93   9 2.98
  20  0.250  0.202  0.137-   6 2.93   6 2.93  10 2.98
  21  0.250  0.755  0.452-   7 2.85  11 2.96  11 2.96
  22  0.750  0.245  0.548-   8 2.85  12 2.96  12 2.96
  23  0.750  0.692  0.240-   7 2.91   7 2.91   9 2.96  11 3.05
  24  0.250  0.308  0.760-   8 2.91   8 2.91  10 2.96  12 3.05
  25  0.250  0.904  0.083-   6 3.02   6 3.02   7 3.06   5 3.17   9 3.21   9 3.21
  26  0.750  0.096  0.917-   5 3.02   5 3.02   8 3.06   6 3.17  10 3.21  10 3.21

  LATTYP: Found a simple monoclinic cell.
 ALAT       =    21.3605926023
 B/A-ratio  =     0.1986841797
 C/A-ratio  =     1.5026816239
 COS(beta)  =    -0.9528717542

  Lattice vectors:

 A1 = (   0.0000000000, -14.6430014100, -15.5517660100)
 A2 = (  -4.2440118200,   0.0000000000,   0.0000000000)
 A3 = (   0.0000000000,  28.0564101800,  15.5926381300)

Analysis of symmetry for initial positions (statically):
 Subroutine PRICEL returns:
 Original cell was already a primitive cell.

 Routine SETGRP: Setting up the symmetry group for a
 simple monoclinic supercell.

 Subroutine GETGRP returns: Found  4 space group operations
 (whereof  2 operations were pure point group operations)
 out of a pool of  4 trial point group operations.

The static configuration has the point symmetry S_2 .
 The point group associated with its full space group is C_2h.

Analysis of symmetry for dynamics (positions and initial velocities):
 Subroutine PRICEL returns:
 Original cell was already a primitive cell.

 Routine SETGRP: Setting up the symmetry group for a
 simple monoclinic supercell.

 Subroutine GETGRP returns: Found  4 space group operations
 (whereof  2 operations were pure point group operations)
 out of a pool of  4 trial point group operations.

The dynamic configuration has the point symmetry S_2 .
 The point group associated with its full space group is C_2h.

 Subroutine INISYM returns: Found  4 space group operations
 (whereof  2 operations are pure point group operations),
 and found     1 'primitive' translations

 KPOINTS: pymatgen with grid density = 807 / numbe

Automatic generation of k-mesh.
Space group operators:
 irot       det(A)        alpha          n_x          n_y          n_z        tau_x        tau_y        tau_z
    1     1.000000     0.000000     1.000000     0.000000     0.000000     0.000000     0.000000     0.000000
    2    -1.000000     0.000000     1.000000     0.000000     0.000000     0.000000     0.000000     0.000000
    3     1.000000   180.000000     1.000000     0.000000     0.000000    -0.500000    -0.000000    -0.000000
    4    -1.000000   180.000000     1.000000     0.000000     0.000000    -0.500000     0.000000     0.000000

 Subroutine IBZKPT returns following result:

 Found      6 irreducible k-points:

 Following reciprocal coordinates:
            Coordinates               Weight
  0.000000  0.250000  0.250000      2.000000
  0.200000  0.250000  0.250000      4.000000
  0.400000  0.250000  0.250000      4.000000
  0.000000 -0.250000  0.250000      2.000000
  0.200000 -0.250000  0.250000      4.000000
  0.400000 -0.250000  0.250000      4.000000

 Following cartesian coordinates:
            Coordinates               Weight
  0.000000  0.018593  0.014644      2.000000
  0.047125  0.018593  0.014644      4.000000
  0.094250  0.018593  0.014644      4.000000
  0.000000 -0.018692  0.017599      2.000000
  0.047125 -0.018692  0.017599      4.000000
  0.094250 -0.018692  0.017599      4.000000

 SYSTEM =  CIS
 POSCAR =  Li4 Bi8 Se14

 Startparameter for this run:
   NWRITE =      2    write-flag & timer
   PREC   = medium    normal or accurate (medium, high low for compatibility)
   ISTART =      0    job   : 0-new  1-cont  2-samecut
   ICHARG =      2    charge: 1-file 2-atom 10-const
   ISPIN  =      1    spin polarized calculation?
   LNONCOLLINEAR =      F non collinear calculations
   LSORBIT =      F    spin-orbit coupling
   INIWAV =      1    electr: 0-lowe 1-rand  2-diag
   LASPH  =      T    aspherical Exc in radial PAW
   METAGGA=      F    non-selfconsistent MetaGGA calc.

 Electronic Relaxation 1
   ENCUT  =  300.0 eV  22.05 Ry    4.70 a.u.   5.99 18.94 21.97*2*pi/ulx,y,z
   ENINI  =  300.0     initial cutoff
   ENAUG  =  446.8 eV  augmentation charge cutoff
   NELM   =     60;   NELMIN=  2; NELMDL= -5     # of ELM steps
   EDIFF  = 0.1E-03   stopping-criterion for ELM
   LREAL  =      T    real-space projection
   NLSPLINE    = F    spline interpolate recip. space projectors
   LCOMPAT=      F    compatible to vasp.4.4
   GGA_COMPAT  = T    GGA compatible to vasp.4.4-vasp.4.6
   LMAXPAW     = -100 max onsite density
   LMAXMIX     =    4 max onsite mixed and CHGCAR
   VOSKOWN=      0    Vosko Wilk Nusair interpolation
   ROPT   =   -0.00200  -0.00200  -0.00200
 Ionic relaxation
   EDIFFG = -.5E-01   stopping-criterion for IOM
   NSW    =     99    number of steps for IOM
   NBLOCK =      1;   KBLOCK =     99    inner block; outer block
   IBRION =      2    ionic relax: 0-MD 1-quasi-New 2-CG
   NFREE  =      1    steps in history (QN), initial steepest desc. (CG)
   ISIF   =      3    stress and relaxation
   IWAVPR =     11    prediction:  0-non 1-charg 2-wave 3-comb
   ISYM   =      2    0-nonsym 1-usesym 2-fastsym
   LCORR  =      T    Harris-Foulkes like correction to forces

   POTIM  = 0.1000    time-step for ionic-motion
   TEIN   =    0.0    initial temperature
   TEBEG  =    0.0;   TEEND  =   0.0 temperature during run
   SMASS  =  -3.00    Nose mass-parameter (am)
   estimated Nose-frequenzy (Omega)   =  0.10E-29 period in steps =****** mass=  -0.412E-27a.u.
   SCALEE = 1.0000    scale energy and forces
   NPACO  =    256;   APACO  = 16.0  distance and # of slots for P.C.
   PSTRESS=    0.0 pullay stress

  Mass of Ions in am
   POMASS =   7.01208.98 78.96
  Ionic Valenz
   ZVAL   =   1.00  5.00  6.00
  Atomic Wigner-Seitz radii
  virtual crystal weights
   VCA    =   1.00  1.00  1.00
   NELECT =     128.0000    total number of electrons
   NUPDOWN=      -1.0000    fix difference up-down

 DOS related values:
   EMIN   =  10.00;   EMAX   =-10.00  energy-range for DOS
   EFERMI =   0.00
   ISMEAR =     0;   SIGMA  =   0.05  broadening in eV -4-tet -1-fermi 0-gaus

 Electronic relaxation 2 (details)
   IALGO  =     38    algorithm
   LDIAG  =      T    sub-space diagonalisation (order eigenvalues)
   LSUBROT=      F    optimize rotation matrix (better conditioning)
   TURBO    =      0    0=normal 1=particle mesh
   IRESTART =      0    0=no restart 2=restart with 2 vectors
   NREBOOT  =      0    no. of reboots
   NMIN     =      0    reboot dimension
   EREF     =   0.00    reference energy to select bands
   IMIX   =      4    mixing-type and parameters
     AMIX     =   0.40;   BMIX     =  1.00
     AMIX_MAG =   1.60;   BMIX_MAG =  1.00
     AMIN     =   0.10
     WC   =   100.;   INIMIX=   1;  MIXPRE=   1;  MAXMIX= -45

 Intra band minimization:
   WEIMIN = 0.0010     energy-eigenvalue tresh-hold
   EBREAK =  0.30E-06  absolut break condition
   DEPER  =   0.30     relativ break condition

   TIME   =   0.40     timestep for ELM

  volume/ion in A,a.u.               =      33.95       229.12
  Fermi-wavevector in a.u.,A,eV,Ry     =   0.860060  1.625278 10.064282  0.739704
  Thomas-Fermi vector in A             =   1.977509

 Write flags
[...]
 d Force = 0.2852614E+01[ 0.279E+01, 0.292E+01]  d Ewald  =-0.4400877E+01 0.725E+01

[...]

 d Force = 0.3862789E-01[-0.412E-02, 0.814E-01]  d Energy = 0.2017080E-01 0.185E-01
 d Force = 0.5397979E+01[ 0.516E+01, 0.564E+01]  d Ewald  = 0.2717802E+01 0.268E+01

[...]

 d Force =-0.2051717E-02[-0.550E-02, 0.139E-02]  d Energy = 0.7879391E-02-0.993E-02
 d Force =-0.1761087E+01[-0.179E+01,-0.173E+01]  d Ewald  =-0.8553954E+00-0.906E+00

[...]

 d Force =-0.1346843E-03[-0.141E-02, 0.114E-02]  d Energy =-0.4951524E-03 0.360E-03
 d Force =-0.1901251E+01[-0.191E+01,-0.189E+01]  d Ewald  =-0.1661269E+01-0.240E+00

[...]

 d Force = 0.1118721E-01[ 0.809E-02, 0.143E-01]  d Energy = 0.1276207E-01-0.157E-02
 d Force =-0.1138344E+01[-0.118E+01,-0.110E+01]  d Ewald  =-0.5723072E+00-0.566E+00

[...]

 d Force = 0.2037213E-02[-0.530E-02, 0.937E-02]  d Energy = 0.1783685E-02 0.254E-03
 d Force = 0.1313630E-01[-0.416E-01, 0.678E-01]  d Ewald  = 0.1976125E+01-0.196E+01

[...]

 d Force = 0.1939837E-03[ 0.532E-04, 0.335E-03]  d Energy =-0.1300349E-04 0.207E-03
 d Force =-0.9701061E-03[-0.235E-02, 0.408E-03]  d Ewald  =-0.3121940E+00 0.311E+00

[...]

 d Force = 0.1112727E-02[-0.753E-03, 0.298E-02]  d Energy =-0.3469006E-03 0.146E-02
 d Force = 0.1620058E+01[ 0.159E+01, 0.165E+01]  d Ewald  = 0.2065662E+01-0.446E+00

[...]

 d Force = 0.1198382E-03[-0.756E-04, 0.315E-03]  d Energy = 0.7470759E-03-0.627E-03
 d Force =-0.6766401E+00[-0.681E+00,-0.672E+00]  d Ewald  =-0.8621364E+00 0.185E+00

[...]

 Conjugate gradient step on ions:
 trial-energy change:   -0.002283  1 .order   -0.002327   -0.002594   -0.002059
  (g-gl).g = 0.327E-03      g.g   = 0.161E-02  gl.gl    = 0.184E-02
 g(Force)  = 0.990E-03   g(Stress)= 0.620E-03 ortho     =-0.266E-03
 gamma     =   0.17795
 trial     =   1.66048
 opt step  =   6.64191  (harmonic =   8.05727) maximal distance =0.00712048
 next E    =  -102.832126   (d E  =  -0.00629)

[...]

 d Force = 0.1116783E-02[ 0.665E-03, 0.157E-02]  d Energy = 0.7332899E-03 0.383E-03
 d Force = 0.6422954E+00[ 0.636E+00, 0.648E+00]  d Ewald  = 0.2242656E+01-0.160E+01

[...]

 eigenvalue-minimisations  :  1260
 total energy-change (2. order) :-0.2223679E-03  (-0.1176787E-02)
 number of electron     127.9999671 magnetization
 augmentation part      -28.4816225 magnetization

[...]

 Broyden mixing:
  rms(total) = 0.58203E-02    rms(broyden)= 0.58202E-02
  rms(prec ) = 0.66782E-02
  weight for this iteration     100.00

 eigenvalues of (default mixing * dielectric matrix)
  average eigenvalue GAMMA=   1.1700
  1.1700  1.1700

[...]

--------------------------------------- Iteration     91(   4)  ---------------------------------------

 eigenvalue-minimisations  :   700
 total energy-change (2. order) : 0.8288201E-04  (-0.8655399E-05)
 number of electron     127.9999672 magnetization
 augmentation part      -28.4789187 magnetization

 Free energy of the ion-electron system (eV)
  alpha Z        PSCENC =       160.87035239
  Ewald energy   TEWEN  =     -4370.04310138
  -Hartree energ DENC   =      -671.88437288
  -exchange      EXHF   =         0.00000000
  -V(xc)+E(xc)   XCENC  =      -902.38337051
  PAW double counting   =      6523.26121578    -5373.82762906
  entropy T*S    EENTRO =        -0.00000000
  eigenvalues    EBANDS =      -296.29652549
  atomic energy  EATOM  =      4827.44859523
  Solvation  Ediel_sol  =         0.00000000
  free energy    TOTEN  =      -102.85483593 eV

  energy without entropy =     -102.85483593  energy(sigma->0) =     -102.85483593

 average (electrostatic) potential at core
  the test charge radii are     0.9748  1.4024  1.0808
  (the norm of the test charge is              1.0000)
       1 -27.1942       2 -27.1942       3 -27.3018       4 -27.3018       5 -64.1969
       6 -64.1969       7 -64.2404       8 -64.2404       9 -64.1788      10 -64.1788
      11 -64.4133      12 -64.4133      13 -54.5481      14 -54.5481      15 -54.3441
      16 -54.3441      17 -54.3999      18 -54.3999      19 -54.5409      20 -54.5409
      21 -54.6423      22 -54.6423      23 -54.6433      24 -54.6433      25 -54.5643
      26 -54.5643

 E-fermi :   3.2102     XC(G=0):  -8.7973     alpha+bet : -8.7688

[...]

 k-point     6 :       0.4000   -0.2500    0.2500
  band No.  band energies     occupation
      1      -9.7564      2.00000
      2      -9.7084      2.00000
      3      -9.3747      2.00000
      4      -9.3101      2.00000
      5      -9.2750      2.00000
      6      -9.0857      2.00000
      7      -9.0509      2.00000
      8      -8.9833      2.00000
      9      -8.9738      2.00000
     10      -8.9256      2.00000
     11      -8.8687      2.00000
     12      -8.8455      2.00000
     13      -8.7489      2.00000
     14      -8.6673      2.00000
     15      -7.5426      2.00000
     16      -7.2826      2.00000
     17      -7.2308      2.00000
     18      -7.2172      2.00000
     19      -7.0170      2.00000
     20      -7.0022      2.00000
     21      -6.7280      2.00000
     22      -6.6314      2.00000
     23      -1.5059      2.00000
     24      -1.4284      2.00000
     25      -1.3482      2.00000
     26      -1.2882      2.00000
     27      -1.0157      2.00000
     28      -0.9274      2.00000
     29      -0.8252      2.00000
     30      -0.6244      2.00000
     31      -0.6092      2.00000
     32      -0.5406      2.00000
     33      -0.3568      2.00000
     34      -0.1700      2.00000
     35      -0.1208      2.00000
     36      -0.0649      2.00000
     37      -0.0334      2.00000
     38       0.1148      2.00000
     39       0.1386      2.00000
     40       0.2426      2.00000
     41       0.2846      2.00000
     42       0.4378      2.00000
     43       0.5754      2.00000
     44       0.7142      2.00000
     45       0.8046      2.00000
     46       0.9592      2.00000
     47       1.1992      2.00000
     48       1.2246      2.00000
     49       1.3117      2.00000
     50       1.4487      2.00000
     51       1.5059      2.00000
     52       1.5693      2.00000
     53       1.6677      2.00000
     54       1.6905      2.00000
     55       1.8373      2.00000
     56       1.8914      2.00000
     57       2.0364      2.00000
     58       2.0490      2.00000
     59       2.1082      2.00000
     60       2.1555      2.00000
[...]
     70       5.2842      0.00000
     71       5.5015      0.00000
     72       5.5497      0.00000
     73       5.6548      0.00000
     74       5.7507      0.00000
     75       5.8092      0.00000
     76       5.9298      0.00000
     77       6.0831      0.00000
     78       6.2000      0.00000
     79       6.2081      0.00000
     80       6.4092      0.00000
     81       6.5856      0.00000
     82       6.6269      0.00000
     83       6.7127      0.00000
     84       6.8959      0.00000

 soft charge-density along one line, spin component           1
         0         1         2         3         4         5         6         7         8         9
 total charge-density along one line

------------------------ aborting loop because EDIFF is reached ----------------------------------------

[...]

  FORCE on cell =-STRESS in cart. coord.  units (eV):
  Direction    XX          YY          ZZ          XY          YZ          ZX
  Alpha Z   160.87035   160.87035   160.87035
  Ewald   -1292.22625 -1539.17011 -1538.65962     0.00000  -136.38452    -0.00000
  Hartree   333.35289   161.13063   177.54941    -0.00000   -98.28195    -0.00000
  E(xc)    -496.95809  -496.46169  -496.46725    -0.00000    -0.09318     0.00000
  Local    -920.62190  -499.69396  -515.37345     0.00000   233.81436     0.00000
  n-local  1188.11748  1183.01816  1182.42227    -0.28373     0.16485     0.66957
  augment  -274.64181  -273.71852  -273.60279     0.00000    -0.12165     0.00000
  Kinetic  1302.15532  1304.31451  1303.20067     0.27800     1.18032     1.49436
  Fock        0.00000     0.00000     0.00000     0.00000     0.00000     0.00000
  Total       0.04798     0.28938    -0.06041     0.00000     0.27824     0.00000
  in kB       0.10501     0.63328    -0.13219     0.00000     0.60889     0.00000

 VOLUME and BASIS-vectors are now :
  energy-cutoff  :      300.00
  volume of cell :      732.13
      direct lattice vectors                 reciprocal lattice vectors
     4.145394651  0.000000000  0.000000000     0.241231556  0.000000000  0.000000000
     0.000000000 13.875193634 -1.007814144     0.000000000  0.072117802  0.000643433
     0.000000000 -0.113637880 12.736859502     0.000000000  0.005706378  0.078563202

  length of vectors
     4.145394651 13.911746394 12.737366428     0.241231556  0.072120672  0.078770168

 FORCES acting on ions
    electron-ion (+dipol)            ewald-force                    non-local-force                 convergence-correction
   0.679E-13 -.261E+01 -.143E+01   0.110E-15 0.246E+01 0.188E+01   0.867E-18 0.189E+00 -.470E+00   -.191E-16 -.536E-03 0.183E-02
   0.687E-13 0.261E+01 0.143E+01   0.126E-14 -.246E+01 -.188E+01   -.867E-18 -.189E+00 0.470E+00   -.125E-15 0.536E-03 -.183E-02
   -.701E-12 0.390E+01 0.333E+01   -.202E-14 -.369E+01 -.298E+01   -.217E-18 -.189E+00 -.381E+00   -.692E-16 -.379E-03 0.772E-03
   -.702E-12 -.390E+01 -.333E+01   0.156E-14 0.369E+01 0.298E+01   0.217E-18 0.189E+00 0.381E+00   -.215E-16 0.379E-03 -.772E-03
   0.189E-11 0.196E+02 0.105E+02   -.388E-14 -.187E+02 -.845E+01   0.694E-17 -.893E+00 -.208E+01   0.110E-14 0.128E-02 0.537E-02
   0.190E-11 -.196E+02 -.105E+02   0.176E-14 0.187E+02 0.845E+01   -.694E-17 0.893E+00 0.208E+01   0.401E-15 -.128E-02 -.537E-02
   0.104E-11 0.439E+01 -.159E+02   0.826E-14 -.260E+01 0.157E+02   0.694E-17 -.176E+01 0.236E+00   -.139E-14 -.858E-02 -.121E-01
   0.103E-11 -.439E+01 0.159E+02   -.639E-14 0.260E+01 -.157E+02   -.694E-17 0.176E+01 -.236E+00   0.134E-14 0.858E-02 0.121E-01
   0.180E-11 0.341E+02 0.142E+02   -.404E-14 -.309E+02 -.126E+02   -.694E-17 -.317E+01 -.168E+01   0.234E-14 -.532E-02 0.429E-02
   0.181E-11 -.341E+02 -.142E+02   0.524E-14 0.309E+02 0.126E+02   0.694E-17 0.317E+01 0.168E+01   -.798E-15 0.532E-02 -.429E-02
   0.316E-12 0.110E+02 -.896E+01   0.704E-14 -.112E+02 0.798E+01   -.694E-17 0.173E+00 0.102E+01   -.469E-15 -.128E-03 -.719E-02
   0.313E-12 -.110E+02 0.896E+01   -.112E-13 0.112E+02 -.798E+01   0.694E-17 -.173E+00 -.102E+01   0.424E-15 0.128E-03 0.719E-02
   0.913E-13 0.299E+02 0.522E+02   -.740E-14 -.305E+02 -.536E+02   0.000E+00 0.596E+00 0.143E+01   0.766E-14 0.395E-02 -.139E-01
   0.115E-12 -.299E+02 -.522E+02   0.553E-14 0.305E+02 0.536E+02   0.000E+00 -.596E+00 -.143E+01   0.108E-14 -.395E-02 0.139E-01
   -.655E-13 0.526E+02 0.194E+02   0.635E-15 -.552E+02 -.189E+02   0.000E+00 0.260E+01 -.560E+00   0.570E-14 -.679E-03 0.570E-02
   -.388E-13 -.526E+02 -.194E+02   -.526E-14 0.552E+02 0.189E+02   0.000E+00 -.260E+01 0.560E+00   0.190E-14 0.679E-03 -.570E-02
   -.362E-12 -.198E+02 -.461E+02   -.787E-15 0.206E+02 0.478E+02   0.000E+00 -.785E+00 -.167E+01   0.168E-14 -.330E-03 -.728E-02
   -.391E-12 0.198E+02 0.461E+02   -.468E-14 -.206E+02 -.478E+02   0.000E+00 0.785E+00 0.167E+01   0.425E-14 0.330E-03 0.728E-02
   -.382E-12 0.670E+02 0.401E+02   -.882E-15 -.685E+02 -.416E+02   0.000E+00 0.146E+01 0.153E+01   0.488E-14 -.794E-02 0.640E-02
   -.409E-12 -.670E+02 -.401E+02   0.540E-15 0.685E+02 0.416E+02   0.000E+00 -.146E+01 -.153E+01   0.183E-14 0.794E-02 -.640E-02
   -.707E-12 -.366E+01 -.483E+02   -.404E-14 0.482E+01 0.501E+02   0.000E+00 -.112E+01 -.176E+01   0.113E-14 -.118E-02 0.249E-02
   -.686E-12 0.366E+01 0.483E+02   0.485E-14 -.482E+01 -.501E+02   0.000E+00 0.112E+01 0.176E+01   0.476E-14 0.118E-02 -.249E-02
   0.232E-11 0.655E+02 0.181E+02   -.152E-13 -.672E+02 -.189E+02   0.173E-17 0.167E+01 0.784E+00   0.721E-14 -.142E-02 -.118E-01
   0.230E-11 -.655E+02 -.181E+02   0.569E-14 0.672E+02 0.189E+02   -.173E-17 -.167E+01 -.784E+00   -.710E-15 0.142E-02 0.118E-01
   0.265E-11 0.191E+02 0.600E+01   -.367E-14 -.193E+02 -.634E+01   0.000E+00 0.253E+00 0.326E+00   0.359E-14 -.277E-02 -.635E-03
   0.268E-11 -.191E+02 -.600E+01   -.299E-14 0.193E+02 0.634E+01   0.000E+00 -.253E+00 -.326E+00   0.234E-14 0.277E-02 0.635E-03
   0.159E-10 -.370E-09 -.318E-09   -.299E-13 0.142E-13 0.746E-13   0.000E+00 0.000E+00 0.222E-15   0.500E-13 0.132E-12 0.176E-13

 POSITION                                       TOTAL-FORCE (eV/Angst)
      1.03635      7.81956      9.13447         0.000000      0.037983     -0.020683
      3.10905      5.94199      2.59457         0.000000     -0.037983      0.020683
      3.10905     12.23138      6.73503         0.000000      0.018010     -0.028435
      1.03635      1.53017      4.99401         0.000000     -0.018010      0.028435
      1.03635     13.10583      9.84519         0.000000     -0.001839     -0.023993
      3.10905      0.65572      1.88385         0.000000      0.001839      0.023993
      1.03635     11.48227      2.97756         0.000000      0.016793     -0.006868
      3.10905      2.27929      8.75148         0.000000     -0.016793      0.006868
      3.10905     10.12321     -0.73353         0.000000      0.010007     -0.042103
      1.03635      3.63834     12.46257         0.000000     -0.010007      0.042103
      3.10905      8.53535      5.07265         0.000000      0.011988      0.033184
      1.03635      5.22620      6.65640         0.000000     -0.011988     -0.033184
      1.03635      6.56979      4.08276         0.000000     -0.017277      0.008545
      3.10905      7.19177      7.64629         0.000000      0.017277     -0.008545
      1.03635      8.29156     -1.11307         0.000000      0.026441     -0.006496
      3.10905      5.58363      0.10525         0.000000     -0.026441      0.006496
      3.10905     -0.21506      4.60885         0.000000      0.024733     -0.007482
      1.03635      0.10142      8.12801         0.000000     -0.024733      0.007482
      3.10905     11.14799      9.27458         0.000000     -0.018681      0.008005
      1.03635      2.61357      2.45446         0.000000      0.018681     -0.008005
      1.03635     10.50134      5.74583         0.000000      0.038208     -0.024600
      3.10905      3.26021      5.98322         0.000000     -0.038208      0.024600
      3.10905      9.59256      2.27159         0.000000     -0.001678     -0.029274
      1.03635      4.16900      9.45745         0.000000      0.001678      0.029274
      1.03635     12.43979      0.11601         0.000000     -0.028280     -0.015867
      3.10905      1.32177     11.61304         0.000000      0.028280      0.015867
    total drift:                                0.000000     -0.000000     -0.000000

  FREE ENERGIE OF THE ION-ELECTRON SYSTEM (eV)
  free  energy   TOTEN  =      -102.85483593 eV

  energy  without entropy=     -102.85483593  energy(sigma->0) =     -102.85483593

 d Force = 0.2055208E-02[ 0.123E-02, 0.288E-02]  d Energy = 0.2339149E-02-0.284E-03
 d Force = 0.1138238E+01[ 0.113E+01, 0.114E+01]  d Ewald  =-0.9899473E+00 0.213E+01

 Conjugate gradient step on ions:
 trial-energy change:   -0.002339  1 .order   -0.002350   -0.003470   -0.001229
  (g-gl).g = 0.490E-03      g.g   = 0.580E-03  gl.gl    = 0.749E-03
 g(Force)  = 0.408E-03   g(Stress)= 0.172E-03 ortho     = 0.309E-04
 gamma     =   0.65380
 trial     =   5.78459
 opt step  =   8.95675  (harmonic =   8.95675) maximal distance =0.01053748
 next E    =  -102.855183   (d E  =  -0.00269)

 reached required accuracy - stopping structural energy minimisation

 total charge

# of ion       s       p       d       tot
    1        0.075   0.113   0.000   0.189
    2        0.075   0.113   0.000   0.189
    3        0.062   0.099   0.000   0.160
    4        0.062   0.099   0.000   0.160
    5        1.826   1.490   0.152   3.467
    6        1.826   1.490   0.152   3.467
    7        1.832   1.469   0.152   3.453
    8        1.832   1.469   0.152   3.453
    9        1.815   1.519   0.139   3.474
   10        1.815   1.519   0.139   3.474
   11        1.834   1.452   0.155   3.441
   12        1.834   1.452   0.155   3.441
   13        1.457   2.356   0.013   3.826
   14        1.457   2.356   0.013   3.826
   15        1.475   2.309   0.017   3.800
   16        1.475   2.309   0.017   3.800
   17        1.464   2.334   0.014   3.813
   18        1.464   2.334   0.014   3.813
   19        1.471   2.309   0.016   3.796
   20        1.471   2.309   0.016   3.796
   21        1.469   2.320   0.015   3.804
   22        1.469   2.320   0.015   3.804
   23        1.474   2.306   0.019   3.799
   24        1.474   2.306   0.019   3.799
   25        1.470   2.318   0.019   3.807
   26        1.470   2.318   0.019   3.807
tot         35.448  44.787   1.419  81.655