 vasp.5.4.4.18Apr17-6-g9f103f2a35 (build Oct 27 2022 13:04:57) complex

 executed on             LinuxIFC date 2024.07.04  07:08:29

 INCAR:
 POTCAR:    PAW_PBE Li 17Jan2003
 POTCAR:    PAW_PBE Ga 08Apr2002
 POTCAR:    PAW_PBE S 06Sep2000

 POTCAR:    PAW_PBE Li 17Jan2003
   VRHFIN =Li: s1p0

   TITEL  = PAW_PBE Li 17Jan2003
   POMASS =    7.010; ZVAL   =    1.000    mass and valenz
   ENMAX  =  140.000; ENMIN  =  100.000 eV

 POTCAR:    PAW_PBE Ga 08Apr2002
   VRHFIN =Ga: s2p1

   TITEL  = PAW_PBE Ga 08Apr2002
   POMASS =   69.723; ZVAL   =    3.000    mass and valenz
   ENMAX  =  134.678; ENMIN  =  101.009 eV

 POTCAR:    PAW_PBE S 06Sep2000
   VRHFIN =S : s2p4

   TITEL  = PAW_PBE S 06Sep2000
   POMASS =   32.066; ZVAL   =    6.000    mass and valenz
   ENMAX  =  258.689; ENMIN  =  194.016 eV

 Optimization of the real space projectors (new method)

 maximal supplied QI-value         = 18.33
 optimisation between [QCUT,QGAM] = [  8.80, 17.60] = [ 21.68, 86.71] Ry
 Optimized for a Real-space Cutoff    1.15 Angstroem

   l    n(q)    QCUT    max X(q) W(low)/X(q) W(high)/X(q)  e(spline)
   0      6     8.799    33.825    0.11E-02    0.11E-02    0.82E-07
   0      6     8.799     8.944    0.75E-03    0.85E-03    0.59E-07
   1      5     8.799     4.214    0.92E-03    0.27E-03    0.41E-07
 Optimization of the real space projectors (new method)

[...]

   l    n(q)    QCUT    max X(q) W(low)/X(q) W(high)/X(q)  e(spline)
   0      7     8.761    81.156    0.11E-03    0.37E-03    0.87E-07
   0      7     8.761    65.205    0.12E-03    0.37E-03    0.87E-07
   1      7     8.761    44.874    0.85E-03    0.88E-03    0.78E-07
   1      7     8.761    25.010    0.87E-03    0.93E-03    0.76E-07
   2      6     8.761     5.217    0.35E-03    0.49E-03    0.48E-07
 Optimization of the real space projectors (new method)

 maximal supplied QI-value         = 19.84
 optimisation between [QCUT,QGAM] = [  8.73, 17.66] = [ 21.34, 87.33] Ry
 Optimized for a Real-space Cutoff    1.22 Angstroem

   l    n(q)    QCUT    max X(q) W(low)/X(q) W(high)/X(q)  e(spline)
   0      6     8.731   187.594    0.15E-02    0.56E-03    0.90E-07
   0      6     8.731   164.243    0.15E-02    0.56E-03    0.89E-07
   1      6     8.731    67.533    0.37E-03    0.20E-02    0.11E-06
   1      6     8.731    50.729    0.36E-03    0.19E-02    0.10E-06
  PAW_PBE Li 17Jan2003                  :
  PAW_PBE Ga 08Apr2002                  :
  PAW_PBE S 06Sep2000                   :

 POSCAR: Li4 Ga4 S8
  positions in direct lattice
 exchange correlation table for  LEXCH =        8
   RHO(1)=    0.500       N(1)  =     2000
   RHO(2)=  100.500       N(2)  =     4000

 ion  position               nearest neighbor table
   1  0.567  0.585  0.122-  13 2.44  12 2.44  16 2.44  11 2.45
   2  0.067  0.415  0.878-  14 2.44  11 2.44  15 2.44  12 2.45
   3  0.067  0.915  0.622-  15 2.44  10 2.44  14 2.44   9 2.45
   4  0.567  0.085  0.378-  16 2.44   9 2.44  13 2.44  10 2.45
   5  0.064  0.919  0.126-  14 2.47  12 2.47   9 2.47  13 2.48
   6  0.564  0.081  0.874-  13 2.47  11 2.47  10 2.47  14 2.48
   7  0.564  0.581  0.626-  16 2.47  10 2.47  11 2.47  15 2.48
   8  0.064  0.419  0.374-  15 2.47   9 2.47  12 2.47  16 2.48
   9  0.192  0.083  0.377-   4 2.44   3 2.45   8 2.47   5 2.47
  10  0.692  0.917  0.623-   3 2.44   4 2.45   7 2.47   6 2.47
  11  0.692  0.417  0.877-   2 2.44   1 2.45   6 2.47   7 2.47
  12  0.192  0.583  0.123-   1 2.44   2 2.45   5 2.47   8 2.47
  13  0.684  0.919  0.128-   1 2.44   4 2.44   6 2.47   5 2.48
  14  0.184  0.081  0.872-   2 2.44   3 2.44   5 2.47   6 2.48
  15  0.184  0.581  0.628-   3 2.44   2 2.44   8 2.47   7 2.48
  16  0.684  0.419  0.372-   4 2.44   1 2.44   7 2.47   8 2.48

  LATTYP: Found a simple orthorhombic cell.
 ALAT       =     6.5204319300
 B/A-ratio  =     1.0628852129
 C/A-ratio  =     1.2405003590

  Lattice vectors:

 A1 = (   6.5204319300,   0.0000000000,   0.0000000000)
 A2 = (   0.0000000000,   6.9304706800,   0.0000000000)
 A3 = (   0.0000000000,   0.0000000000,   8.0885981500)

Analysis of symmetry for initial positions (statically):
 Subroutine PRICEL returns:
 Original cell was already a primitive cell.

 Routine SETGRP: Setting up the symmetry group for a
 simple orthorhombic supercell.

 Subroutine GETGRP returns: Found  4 space group operations
 (whereof  1 operations were pure point group operations)
 out of a pool of  8 trial point group operations.

The static configuration has the point symmetry C_1 .
 The point group associated with its full space group is C_2v.

Analysis of symmetry for dynamics (positions and initial velocities):
 Subroutine PRICEL returns:
 Original cell was already a primitive cell.

 Routine SETGRP: Setting up the symmetry group for a
 simple orthorhombic supercell.

 Subroutine GETGRP returns: Found  4 space group operations
 (whereof  1 operations were pure point group operations)
 out of a pool of  8 trial point group operations.

The dynamic configuration has the point symmetry C_1 .
 The point group associated with its full space group is C_2v.

 Subroutine INISYM returns: Found  4 space group operations
 (whereof  1 operations are pure point group operations),
 and found     1 'primitive' translations

 KPOINTS: pymatgen with grid density = 807 / numbe

Automatic generation of k-mesh.
Space group operators:
 irot       det(A)        alpha          n_x          n_y          n_z        tau_x        tau_y        tau_z
    1     1.000000     0.000001     1.000000     0.000000     0.000000     0.000000     0.000000     0.000000
    2    -1.000000   180.000000     0.000000     0.000000     1.000000     0.000000     0.500000     0.500000
    3    -1.000000   180.000000     0.000000     1.000000     0.000000     0.500000     0.500000     0.500000
    4     1.000000   180.000000     1.000000     0.000000     0.000000     0.500000     0.000000     0.000000

 Subroutine IBZKPT returns following result:

 Found      8 irreducible k-points:

 Following reciprocal coordinates:
            Coordinates               Weight
  0.000000  0.000000  0.000000      1.000000
  0.333333  0.000000  0.000000      2.000000
  0.000000  0.333333  0.000000      2.000000
  0.333333  0.333333  0.000000      4.000000
  0.000000  0.000000  0.333333      2.000000
  0.333333  0.000000  0.333333      4.000000
  0.000000  0.333333  0.333333      4.000000
  0.333333  0.333333  0.333333      8.000000

 Following cartesian coordinates:
            Coordinates               Weight
  0.000000  0.000000  0.000000      1.000000
  0.051121  0.000000  0.000000      2.000000
  0.000000  0.048097  0.000000      2.000000
  0.051121  0.048097  0.000000      4.000000
  0.000000  0.000000  0.041210      2.000000
  0.051121  0.000000  0.041210      4.000000
  0.000000  0.048097  0.041210      4.000000
  0.051121  0.048097  0.041210      8.000000

 SYSTEM =  CIS
 POSCAR =  Li4 Ga4 S8

 Startparameter for this run:
   NWRITE =      2    write-flag & timer
   PREC   = medium    normal or accurate (medium, high low for compatibility)
   ISTART =      0    job   : 0-new  1-cont  2-samecut
   ICHARG =      2    charge: 1-file 2-atom 10-const
   ISPIN  =      1    spin polarized calculation?
   LNONCOLLINEAR =      F non collinear calculations
   LSORBIT =      F    spin-orbit coupling
   INIWAV =      1    electr: 0-lowe 1-rand  2-diag
   LASPH  =      T    aspherical Exc in radial PAW
   METAGGA=      F    non-selfconsistent MetaGGA calc.

 Electronic Relaxation 1
   ENCUT  =  300.0 eV  22.05 Ry    4.70 a.u.   9.21  9.79 11.42*2*pi/ulx,y,z
   ENINI  =  300.0     initial cutoff
   ENAUG  =  335.1 eV  augmentation charge cutoff
   NELM   =     60;   NELMIN=  2; NELMDL= -5     # of ELM steps
   EDIFF  = 0.1E-03   stopping-criterion for ELM
   LREAL  =      T    real-space projection
   NLSPLINE    = F    spline interpolate recip. space projectors
   LCOMPAT=      F    compatible to vasp.4.4
   GGA_COMPAT  = T    GGA compatible to vasp.4.4-vasp.4.6
   LMAXPAW     = -100 max onsite density
   LMAXMIX     =    4 max onsite mixed and CHGCAR
   VOSKOWN=      0    Vosko Wilk Nusair interpolation
   ROPT   =   -0.00200  -0.00200  -0.00200
 Ionic relaxation
   EDIFFG = -.5E-01   stopping-criterion for IOM
   NSW    =     99    number of steps for IOM
   NBLOCK =      1;   KBLOCK =     99    inner block; outer block
   IBRION =      2    ionic relax: 0-MD 1-quasi-New 2-CG
   NFREE  =      1    steps in history (QN), initial steepest desc. (CG)
   ISIF   =      3    stress and relaxation
   IWAVPR =     11    prediction:  0-non 1-charg 2-wave 3-comb
   ISYM   =      2    0-nonsym 1-usesym 2-fastsym
   LCORR  =      T    Harris-Foulkes like correction to forces

   POTIM  = 0.1000    time-step for ionic-motion
   TEIN   =    0.0    initial temperature
   TEBEG  =    0.0;   TEEND  =   0.0 temperature during run
   SMASS  =  -3.00    Nose mass-parameter (am)
   estimated Nose-frequenzy (Omega)   =  0.10E-29 period in steps =****** mass=  -0.972E-27a.u.
   SCALEE = 1.0000    scale energy and forces
   NPACO  =    256;   APACO  = 16.0  distance and # of slots for P.C.
   PSTRESS=    0.0 pullay stress

  Mass of Ions in am
   POMASS =   7.01 69.72 32.07
  Ionic Valenz
   ZVAL   =   1.00  3.00  6.00
  Atomic Wigner-Seitz radii
  virtual crystal weights
   VCA    =   1.00  1.00  1.00
   NELECT =      64.0000    total number of electrons
   NUPDOWN=      -1.0000    fix difference up-down

 DOS related values:
   EMIN   =  10.00;   EMAX   =-10.00  energy-range for DOS
   EFERMI =   0.00
   ISMEAR =     0;   SIGMA  =   0.05  broadening in eV -4-tet -1-fermi 0-gaus

 Electronic relaxation 2 (details)
   IALGO  =     38    algorithm
   LDIAG  =      T    sub-space diagonalisation (order eigenvalues)
   LSUBROT=      F    optimize rotation matrix (better conditioning)
   TURBO    =      0    0=normal 1=particle mesh
   IRESTART =      0    0=no restart 2=restart with 2 vectors
   NREBOOT  =      0    no. of reboots
   NMIN     =      0    reboot dimension
   EREF     =   0.00    reference energy to select bands
   IMIX   =      4    mixing-type and parameters
     AMIX     =   0.40;   BMIX     =  1.00
     AMIX_MAG =   1.60;   BMIX_MAG =  1.00
     AMIN     =   0.10
     WC   =   100.;   INIMIX=   1;  MIXPRE=   1;  MAXMIX= -45

 Intra band minimization:
   WEIMIN = 0.0010     energy-eigenvalue tresh-hold
   EBREAK =  0.60E-06  absolut break condition
   DEPER  =   0.30     relativ break condition

   TIME   =   0.40     timestep for ELM

  volume/ion in A,a.u.               =      22.85       154.17
  Fermi-wavevector in a.u.,A,eV,Ry     =   0.915863  1.730731 11.412645  0.838806
  Thomas-Fermi vector in A             =   2.040653

 Write flags
   LWAVE        =      F    write WAVECAR
   LDOWNSAMPLE  =      F    k-point downsampling of WAVECAR
   LCHARG       =      F    write CHGCAR
   LVTOT        =      F    write LOCPOT, total local potential
   LVHAR        =      F    write LOCPOT, Hartree potential only
   LELF         =      F    write electronic localiz. function (ELF)
   LORBIT       =     10    0 simple, 1 ext, 2 COOP (PROOUT), +10 PAW based schemes

 Dipole corrections
[...]
   -.859E+01 -.720E+01 -.123E+02   0.112E+02 0.906E+01 0.155E+02   -.340E+01 -.241E+01 -.413E+01   0.182E-02 0.103E-02 0.221E-02
   -.859E+01 0.720E+01 0.123E+02   0.112E+02 -.906E+01 -.155E+02   -.340E+01 0.241E+01 0.413E+01   0.182E-02 -.103E-02 -.221E-02
   0.779E+01 0.633E+01 -.125E+02   -.104E+02 -.818E+01 0.158E+02   0.334E+01 0.238E+01 -.424E+01   -.140E-02 -.700E-03 0.279E-02
   0.779E+01 -.633E+01 0.125E+02   -.104E+02 0.818E+01 -.158E+02   0.334E+01 -.238E+01 0.424E+01   -.140E-02 0.700E-03 -.279E-02
   0.779E+01 -.633E+01 -.125E+02   -.104E+02 0.818E+01 0.158E+02   0.334E+01 -.238E+01 -.424E+01   -.140E-02 0.700E-03 0.279E-02
   0.779E+01 0.633E+01 0.125E+02   -.104E+02 -.818E+01 -.158E+02   0.334E+01 0.238E+01 0.424E+01   -.140E-02 -.700E-03 -.279E-02
   0.138E+00 0.248E-11 0.327E-03   -.355E-14 0.178E-14 -.178E-14   -.669E-01 -.444E-15 -.888E-15   0.143E-02 0.872E-14 -.120E-12

 POSITION                                       TOTAL-FORCE (eV/Angst)
      3.69597      4.05656      0.98986         0.006397      0.029594      0.023123
      0.43575      2.87391      7.09874         0.006397     -0.029594     -0.023123
      0.43575      6.33914      5.03416         0.006397     -0.029594      0.023123
      3.69597      0.59133      3.05444         0.006397      0.029594     -0.023123
      0.41865      6.36703      1.01596         0.009500      0.007689     -0.044560
      3.67887      0.56344      7.07263         0.009500     -0.007689      0.044560
      3.67887      4.02868      5.06026         0.009500     -0.007689     -0.044560
      0.41865      2.90179      3.02833         0.009500      0.007689      0.044560
      1.25230      0.57534      3.04633        -0.763366      0.546375     -0.906614
      4.51251      6.35513      5.04227        -0.763366     -0.546375      0.906614
      4.51251      2.88990      7.09063        -0.763366     -0.546375     -0.906614
      1.25230      4.04058      0.99797        -0.763366      0.546375      0.906614
      4.46068      6.37249      1.03791         0.747469      0.534779     -0.961806
      1.20046      0.55798      7.05069         0.747469     -0.534779      0.961806
      1.20046      4.02321      5.08220         0.747469     -0.534779     -0.961806
      4.46068      2.90726      3.00639         0.747469      0.534779      0.961806
    total drift:                                0.072036      0.000000      0.000327

  FREE ENERGIE OF THE ION-ELECTRON SYSTEM (eV)
  free  energy   TOTEN  =       -67.19224221 eV

  energy  without entropy=      -67.19224221  energy(sigma->0) =      -67.19224221

[...]

 d Force = 0.1263668E+00[ 0.120E+00, 0.133E+00]  d Energy = 0.4727135E+00-0.346E+00
 d Force =-0.2168212E+01[-0.223E+01,-0.210E+01]  d Ewald  = 0.1607803E+02-0.182E+02

 Steepest descent step on ions:
 trial-energy change:   -0.472714  1 .order   -0.471846   -0.510195   -0.433496
  (g-gl).g = 0.510E+00      g.g   = 0.510E+00  gl.gl    = 0.000E+00
 g(Force)  = 0.134E+00   g(Stress)= 0.376E+00 ortho     = 0.000E+00
 gamma     =   0.00000
 trial     =   1.00000
 opt step  =   4.00000  (harmonic =   6.65193) maximal distance =0.03712005
 next E    =   -68.634657   (d E  =  -1.44241)

[...]

 d Force =-0.5853380E-02[-0.617E-02,-0.553E-02]  d Energy = 0.2176004E-02-0.803E-02
 d Force = 0.4592162E+00[ 0.457E+00, 0.461E+00]  d Ewald  =-0.2722731E+01 0.318E+01

[...]

 d Force =-0.1591001E-02[-0.161E-02,-0.157E-02]  d Energy = 0.9719540E-05-0.160E-02
 d Force = 0.1161881E+00[ 0.116E+00, 0.116E+00]  d Ewald  =-0.6927602E+00 0.809E+00

[...]

 d Force = 0.2283988E-01[ 0.214E-01, 0.243E-01]  d Energy = 0.2817556E-01-0.534E-02
 d Force =-0.1654433E+01[-0.167E+01,-0.164E+01]  d Ewald  =-0.4041489E+01 0.239E+01

 Conjugate gradient step on ions:
 trial-energy change:   -0.028176  1 .order   -0.028522   -0.030480   -0.026564
  (g-gl).g = 0.152E-01      g.g   = 0.168E-01  gl.gl    = 0.510E+00
 g(Force)  = 0.122E-01   g(Stress)= 0.456E-02 ortho     = 0.164E-02
 gamma     =   0.02972
 trial     =   1.80840
 opt step  =   7.23359  (harmonic =  14.07566) maximal distance =0.02108215
 next E    =   -68.726332   (d E  =  -0.11862)

[...]

 d Force = 0.1799038E-01[-0.356E-01, 0.715E-01]  d Energy = 0.2648121E-01-0.849E-02
 d Force =-0.1124510E+02[-0.118E+02,-0.107E+02]  d Ewald  =-0.2528331E+02 0.140E+02

[...]

 d Force = 0.5859299E-02[ 0.340E-02, 0.831E-02]  d Energy = 0.4577331E-02 0.128E-02
 d Force = 0.2727233E+01[ 0.270E+01, 0.276E+01]  d Ewald  = 0.6030621E+01-0.330E+01

[...]

 Conjugate gradient step on ions:
 trial-energy change:   -0.017536  1 .order   -0.018496   -0.032109   -0.004884
  (g-gl).g = 0.775E-02      g.g   = 0.739E-02  gl.gl    = 0.168E-01
 g(Force)  = 0.532E-02   g(Stress)= 0.207E-02 ortho     =-0.719E-03
 gamma     =   0.46116
 trial     =   4.55151
 opt step  =   5.65967  (harmonic =   5.36806) maximal distance =0.01086074
 next E    =   -68.745063   (d E  =  -0.01812)

[...]

 d Force = 0.7104889E-03[ 0.346E-03, 0.108E-02]  d Energy = 0.1752054E-03 0.535E-03
 d Force =-0.5404088E+00[-0.544E+00,-0.537E+00]  d Ewald  =-0.1804788E+01 0.126E+01

[...]

 d Force =-0.1162150E-03[-0.146E-03,-0.868E-04]  d Energy = 0.7503719E-04-0.191E-03
 d Force = 0.1356294E+00[ 0.135E+00, 0.136E+00]  d Ewald  = 0.4518022E+00-0.316E+00

[...]

 d Force = 0.5632173E-02[ 0.464E-02, 0.663E-02]  d Energy = 0.6456255E-02-0.824E-03
 d Force =-0.8173359E-02[-0.585E-02,-0.105E-01]  d Ewald  = 0.1359104E+00-0.144E+00

[...]

 d Force = 0.6684292E-02[ 0.931E-03, 0.124E-01]  d Energy = 0.9195118E-02-0.251E-02
 d Force = 0.5588515E-02[ 0.229E-01,-0.117E-01]  d Ewald  = 0.4160897E+00-0.411E+00

[...]

 d Force =-0.2513501E-03[-0.758E-03, 0.255E-03]  d Energy = 0.1887845E-03-0.440E-03
 d Force = 0.6382982E-02[ 0.773E-02, 0.503E-02]  d Ewald  = 0.1265050E+00-0.120E+00

[...]

 d Force = 0.8942463E-03[-0.120E-02, 0.299E-02]  d Energy = 0.6023126E-04 0.834E-03
 d Force = 0.3889154E+00[ 0.373E+00, 0.404E+00]  d Ewald  = 0.7641859E+00-0.375E+00

 Conjugate gradient step on ions:
 trial-energy change:   -0.000060  1 .order   -0.000803   -0.004978    0.003372
  (g-gl).g = 0.468E-03      g.g   = 0.634E-03  gl.gl    = 0.166E-02
 g(Force)  = 0.437E-03   g(Stress)= 0.197E-03 ortho     =-0.277E-04
 gamma     =   0.28173
 trial     =   7.94551
 opt step  =   3.68226  (harmonic =   4.73704) maximal distance =0.00274885
 next E    =   -68.761653   (d E  =  -0.00108)

[...]

 eigenvalue-minimisations  :   812
 total energy-change (2. order) : 0.1131810E-03  (-0.4189993E-04)
 number of electron      63.9998934 magnetization
 augmentation part       -8.3278165 magnetization

 Broyden mixing:
  rms(total) = 0.27669E-02    rms(broyden)= 0.27667E-02
  rms(prec ) = 0.30521E-02
  weight for this iteration     100.00

 eigenvalues of (default mixing * dielectric matrix)
  average eigenvalue GAMMA=   1.3879
  1.6457  1.6457  0.8722

[...]

--------------------------------------- Iteration     18(   5)  ---------------------------------------

 eigenvalue-minimisations  :   420
 total energy-change (2. order) :-0.2545366E-05  (-0.6581602E-05)
 number of electron      63.9998934 magnetization
 augmentation part       -8.3278165 magnetization

 Free energy of the ion-electron system (eV)
  alpha Z        PSCENC =        86.89320264
  Ewald energy   TEWEN  =     -2122.10370059
  -Hartree energ DENC   =      -439.51796172
  -exchange      EXHF   =         0.00000000
  -V(xc)+E(xc)   XCENC  =         9.39383391
  PAW double counting   =      5682.17898330    -5542.56634109
  entropy T*S    EENTRO =        -0.00000000
  eigenvalues    EBANDS =      -214.23715421
  atomic energy  EATOM  =      2471.19760440
  Solvation  Ediel_sol  =         0.00000000
  free energy    TOTEN  =       -68.76153337 eV

  energy without entropy =      -68.76153337  energy(sigma->0) =      -68.76153337

 average (electrostatic) potential at core
  the test charge radii are     0.9748  1.2767  0.9698
  (the norm of the test charge is              1.0000)
       1 -27.2929       2 -27.2929       3 -27.2929       4 -27.2929       5 -15.4290
       6 -15.4290       7 -15.4290       8 -15.4290       9 -88.8759      10 -88.8759
      11 -88.8759      12 -88.8759      13 -88.8846      14 -88.8846      15 -88.8846
      16 -88.8846

 E-fermi :   1.3500     XC(G=0):  -8.4628     alpha+bet : -8.7257

[...]

 k-point     8 :       0.3333    0.3333    0.3333
  band No.  band energies     occupation
      1     -10.9535      2.00000
      2     -10.7891      2.00000
      3     -10.4804      2.00000
      4     -10.3336      2.00000
      5     -10.0646      2.00000
      6     -10.0229      2.00000
      7      -9.9477      2.00000
      8      -9.9329      2.00000
      9      -4.5057      2.00000
     10      -4.3039      2.00000
     11      -3.6948      2.00000
     12      -3.4981      2.00000
     13      -1.8085      2.00000
     14      -1.6565      2.00000
     15      -1.5078      2.00000
     16      -1.3561      2.00000
     17      -1.2167      2.00000
     18      -1.0332      2.00000
     19      -0.8579      2.00000
     20      -0.6845      2.00000
     21      -0.6156      2.00000
     22      -0.4387      2.00000
     23      -0.3007      2.00000
     24      -0.2591      2.00000
     25      -0.0630      2.00000
     26       0.0441      2.00000
     27       0.2883      2.00000
     28       0.3804      2.00000
     29       0.5207      2.00000
     30       0.5962      2.00000
     31       0.6470      2.00000
     32       0.7236      2.00000
     33       4.5484      0.00000
     34       4.7362      0.00000
     35       4.9695      0.00000
     36       5.1342      0.00000
     37       6.0890      0.00000
     38       6.2723      0.00000
     39       6.3543      0.00000
     40       6.6683      0.00000
     41       6.9343      0.00000
     42       7.0071      0.00000

 soft charge-density along one line, spin component           1
         0         1         2         3         4         5         6         7         8         9
 total charge-density along one line

------------------------ aborting loop because EDIFF is reached ----------------------------------------

[...]

  FORCE on cell =-STRESS in cart. coord.  units (eV):
  Direction    XX          YY          ZZ          XY          YZ          ZX
  Alpha Z    86.89320    86.89320    86.89320
  Ewald    -692.85877  -715.59856  -713.64938    -0.00000     0.00000     0.00000
  Hartree   155.74903   147.70421   136.06509    -0.00000    -0.00000    -0.00000
  E(xc)    -222.43205  -222.59545  -222.75680    -0.00000     0.00000     0.00000
  Local    -551.15621  -522.47644  -507.04017    -0.00000     0.00000     0.00000
  n-local   620.87844   621.13650   622.28145    -0.10586    -0.13050    -0.05244
  augment  -126.15680  -126.35216  -125.80718     0.00000    -0.00000    -0.00000
  Kinetic   729.11685   731.32009   723.87401    -0.39787     0.13803     0.07651
  Fock        0.00000     0.00000     0.00000     0.00000     0.00000     0.00000
  Total       0.03369     0.03140    -0.13978     0.00000     0.00000     0.00000
  in kB       0.16300     0.15192    -0.67631     0.00000     0.00000     0.00000

 VOLUME and BASIS-vectors are now :
  energy-cutoff  :      300.00
  volume of cell :      331.13
      direct lattice vectors                 reciprocal lattice vectors
     6.310608930  0.000000000  0.000000000     0.158463313  0.000000000  0.000000000
     0.000000000  6.609096221  0.000000000     0.000000000  0.151306618  0.000000000
     0.000000000  0.000000000  7.939412949     0.000000000  0.000000000  0.125953897

  length of vectors
     6.310608930  6.609096221  7.939412949     0.158463313  0.151306618  0.125953897

 FORCES acting on ions
    electron-ion (+dipol)            ewald-force                    non-local-force                 convergence-correction
   0.124E+00 0.146E+01 0.667E+00   -.159E+00 -.129E+01 -.581E+00   0.341E-01 -.153E+00 -.101E+00   -.330E-04 0.417E-04 -.226E-04
   0.124E+00 -.146E+01 -.667E+00   -.159E+00 0.129E+01 0.581E+00   0.341E-01 0.153E+00 0.101E+00   -.330E-04 -.417E-04 0.226E-04
   0.124E+00 -.146E+01 0.667E+00   -.159E+00 0.129E+01 -.581E+00   0.341E-01 0.153E+00 -.101E+00   -.330E-04 -.417E-04 -.226E-04
   0.124E+00 0.146E+01 -.667E+00   -.159E+00 -.129E+01 0.581E+00   0.341E-01 -.153E+00 0.101E+00   -.330E-04 0.417E-04 0.226E-04
   0.658E+00 0.256E+00 -.830E+00   -.611E+00 -.302E+00 0.755E+00   -.582E-01 0.334E-01 0.654E-01   -.160E-03 -.167E-03 0.483E-03
   0.658E+00 -.256E+00 0.830E+00   -.611E+00 0.302E+00 -.755E+00   -.582E-01 -.334E-01 -.654E-01   -.160E-03 0.167E-03 -.483E-03
   0.658E+00 -.256E+00 -.830E+00   -.611E+00 0.302E+00 0.755E+00   -.582E-01 -.334E-01 0.654E-01   -.160E-03 0.167E-03 0.483E-03
   0.658E+00 0.256E+00 0.830E+00   -.611E+00 -.302E+00 -.755E+00   -.582E-01 0.334E-01 -.654E-01   -.160E-03 -.167E-03 -.483E-03
   -.151E+02 0.128E+02 -.217E+02   0.175E+02 -.146E+02 0.249E+02   -.237E+01 0.173E+01 -.312E+01   -.537E-03 -.237E-02 -.290E-02
   -.151E+02 -.128E+02 0.217E+02   0.175E+02 0.146E+02 -.249E+02   -.237E+01 -.173E+01 0.312E+01   -.537E-03 0.237E-02 0.290E-02
   -.151E+02 -.128E+02 -.217E+02   0.175E+02 0.146E+02 0.249E+02   -.237E+01 -.173E+01 -.312E+01   -.537E-03 0.237E-02 -.290E-02
   -.151E+02 0.128E+02 0.217E+02   0.175E+02 -.146E+02 -.249E+02   -.237E+01 0.173E+01 0.312E+01   -.537E-03 -.237E-02 0.290E-02
   0.143E+02 0.956E+01 -.218E+02   -.167E+02 -.112E+02 0.250E+02   0.238E+01 0.166E+01 -.323E+01   0.147E-04 -.396E-04 -.124E-02
   0.143E+02 -.956E+01 0.218E+02   -.167E+02 0.112E+02 -.250E+02   0.238E+01 -.166E+01 0.323E+01   0.147E-04 0.396E-04 0.124E-02
   0.143E+02 -.956E+01 -.218E+02   -.167E+02 0.112E+02 0.250E+02   0.238E+01 -.166E+01 -.323E+01   0.147E-04 0.396E-04 -.124E-02
   0.143E+02 0.956E+01 0.218E+02   -.167E+02 -.112E+02 -.250E+02   0.238E+01 0.166E+01 0.323E+01   0.147E-04 -.396E-04 0.124E-02
   0.327E-01 0.371E-11 -.287E-03   -.355E-14 -.142E-13 -.355E-14   -.387E-01 0.000E+00 -.444E-15   -.286E-02 -.157E-13 0.193E-12

 POSITION                                       TOTAL-FORCE (eV/Angst)
      3.57677      3.86411      0.97985        -0.000860      0.014616     -0.014883
      0.42147      2.74499      6.95956        -0.000860     -0.014616      0.014883
      0.42147      6.04954      4.94956        -0.000860     -0.014616     -0.014883
      3.57677      0.55956      2.98986        -0.000860      0.014616      0.014883
      0.40808      6.12755      0.99773        -0.010596     -0.012261     -0.009622
      3.56338      0.48155      6.94168        -0.010596      0.012261      0.009622
      3.56338      3.78610      4.96744        -0.010596      0.012261     -0.009622
      0.40808      2.82300      2.97197        -0.010596     -0.012261      0.009622
      1.13004      0.61972      2.90011         0.028746      0.006295      0.010056
      4.28534      5.98937      5.03930         0.028746     -0.006295     -0.010056
      4.28534      2.68482      6.86982         0.028746     -0.006295      0.010056
      1.13004      3.92427      1.06960         0.028746      0.006295     -0.010056
      4.39646      6.15346      0.93766        -0.017289     -0.004370     -0.015664
      1.24116      0.45564      7.00176        -0.017289      0.004370      0.015664
      1.24116      3.76018      4.90736        -0.017289      0.004370     -0.015664
      4.39646      2.84891      3.03205        -0.017289     -0.004370      0.015664
    total drift:                               -0.008840      0.000000     -0.000287

  FREE ENERGIE OF THE ION-ELECTRON SYSTEM (eV)
  free  energy   TOTEN  =       -68.76153337 eV

  energy  without entropy=      -68.76153337  energy(sigma->0) =      -68.76153337

 d Force = 0.1551288E-03[-0.332E-03, 0.642E-03]  d Energy = 0.9000366E-03-0.745E-03
 d Force =-0.2029344E+00[-0.207E+00,-0.198E+00]  d Ewald  =-0.4043338E+00 0.201E+00

 reached required accuracy - stopping structural energy minimisation

 total charge

# of ion       s       p       d       tot
    1        0.089   0.160   0.000   0.248
    2        0.088   0.159   0.000   0.248
    3        0.088   0.159   0.000   0.248
    4        0.089   0.159   0.000   0.248
    5        1.013   1.149   0.218   2.381
    6        1.014   1.149   0.218   2.382
    7        1.015   1.148   0.218   2.381
    8        1.014   1.149   0.219   2.381
    9        1.325   2.433   0.000   3.758
   10        1.325   2.431   0.000   3.757
   11        1.325   2.430   0.000   3.755
   12        1.325   2.430   0.000   3.755
   13        1.324   2.437   0.000   3.761
   14        1.324   2.436   0.000   3.761
   15        1.324   2.438   0.000   3.762
   16        1.324   2.437   0.000   3.761
tot         15.009  24.705   0.873  40.587