 vasp.5.4.4.18Apr17-6-g9f103f2a35 (build Oct 27 2022 13:04:57) complex

 executed on             LinuxIFC date 2024.06.30  09:16:13

 INCAR:
 POTCAR:    PAW_PBE Na 08Apr2002
 POTCAR:    PAW_PBE Bi 08Apr2002
 POTCAR:    PAW_PBE Se 06Sep2000

 POTCAR:    PAW_PBE Na 08Apr2002
   VRHFIN =Na: s1p0

   TITEL  = PAW_PBE Na 08Apr2002
   POMASS =   22.990; ZVAL   =    1.000    mass and valenz
   ENMAX  =  101.968; ENMIN  =   76.476 eV

 POTCAR:    PAW_PBE Bi 08Apr2002
   VRHFIN =Bi:

   TITEL  = PAW_PBE Bi 08Apr2002
   POMASS =  208.980; ZVAL   =    5.000    mass and valenz
   ENMAX  =  105.037; ENMIN  =   78.777 eV

 POTCAR:    PAW_PBE Se 06Sep2000
   VRHFIN =Se: s2p4

   TITEL  = PAW_PBE Se 06Sep2000
   POMASS =   78.960; ZVAL   =    6.000    mass and valenz
   ENMAX  =  211.555; ENMIN  =  158.666 eV

 Optimization of the real space projectors (new method)

 maximal supplied QI-value         = 17.01
 optimisation between [QCUT,QGAM] = [  8.84, 17.69] = [ 21.90, 87.61] Ry
 Optimized for a Real-space Cutoff    1.22 Angstroem

   l    n(q)    QCUT    max X(q) W(low)/X(q) W(high)/X(q)  e(spline)
   0      6     8.844    45.123    0.62E-03    0.70E-03    0.80E-07
   0      6     8.844    12.364    0.51E-03    0.48E-03    0.55E-07
   1      6     8.844     8.302    0.36E-03    0.27E-03    0.23E-07
 Optimization of the real space projectors (new method)

[...]

   l    n(q)    QCUT    max X(q) W(low)/X(q) W(high)/X(q)  e(spline)
   0      8     8.855    93.365    0.12E-03    0.22E-03    0.92E-07
   0      8     8.855    75.373    0.13E-03    0.24E-03    0.10E-06
   1      8     8.855    32.978    0.17E-02    0.62E-03    0.17E-06
   1      8     8.855    35.433    0.19E-02    0.68E-03    0.19E-06
   2      7     8.855     8.108    0.22E-03    0.34E-03    0.64E-07
 Optimization of the real space projectors (new method)

 maximal supplied QI-value         = 17.95
 optimisation between [QCUT,QGAM] = [  8.80, 17.59] = [ 21.67, 86.68] Ry
 Optimized for a Real-space Cutoff    1.19 Angstroem

   l    n(q)    QCUT    max X(q) W(low)/X(q) W(high)/X(q)  e(spline)
   0      6     8.797   133.320    0.14E-02    0.11E-02    0.95E-07
   0      6     8.797   111.601    0.15E-02    0.12E-02    0.10E-06
   1      6     8.797    47.222    0.19E-02    0.96E-03    0.11E-06
   1      6     8.797    33.775    0.19E-02    0.99E-03    0.11E-06
   2      5     8.797     3.720    0.16E-02    0.14E-02    0.40E-07
  PAW_PBE Na 08Apr2002                  :
  PAW_PBE Bi 08Apr2002                  :
  PAW_PBE Se 06Sep2000                  :

 POSCAR: Na4 Bi8 Se14
  positions in direct lattice
  velocities in cartesian coordinates
 exchange correlation table for  LEXCH =        8
   RHO(1)=    0.500       N(1)  =     2000
   RHO(2)=  100.500       N(2)  =     4000

 ion  position               nearest neighbor table
   1  0.250  0.552  0.798-  13 2.88  26 3.10  26 3.10  18 3.46   8 3.93
   2  0.750  0.448  0.202-  14 2.88  25 3.10  25 3.10  17 3.46   7 3.93
   3  0.750  0.845  0.622-  19 2.91  23 2.98  23 2.98  16 3.02  16 3.02   7 3.95
   4  0.250  0.155  0.378-  20 2.91  24 2.98  24 2.98  15 3.02  15 3.02   8 3.95
   5  0.250  0.844  0.296-  23 2.90  17 2.94  17 2.94  15 3.02  15 3.02  21 3.04
   6  0.750  0.156  0.704-  24 2.90  18 2.94  18 2.94  16 3.02  16 3.02  22 3.04
   7  0.750  0.614  0.441-  26 2.91  23 2.98  23 2.98  17 3.00  25 3.02  25 3.02   2 3.93   3 3.95

   8  0.250  0.386  0.559-  25 2.91  24 2.98  24 2.98  18 3.00  26 3.02  26 3.02   1 3.93   4 3.95

   9  0.750  0.729  0.031-  13 2.79  13 2.79  17 2.96  19 2.98  21 3.23  21 3.23
  10  0.250  0.271  0.969-  14 2.79  14 2.79  18 2.96  20 2.98  22 3.23  22 3.23
  11  0.250  0.940  0.864-  16 2.84  19 2.92  19 2.92  22 3.06  22 3.06  21 3.10
  12  0.750  0.060  0.136-  15 2.84  20 2.92  20 2.92  21 3.06  21 3.06  22 3.10
  13  0.250  0.595  0.004-   9 2.79   9 2.79   1 2.88
  14  0.750  0.405  0.996-  10 2.79  10 2.79   2 2.88
  15  0.750  0.001  0.332-  12 2.84   5 3.02   5 3.02   4 3.02   4 3.02
  16  0.250  0.999  0.668-  11 2.84   6 3.02   6 3.02   3 3.02   3 3.02
  17  0.750  0.701  0.243-   5 2.94   5 2.94   9 2.96   7 3.00   2 3.46
  18  0.250  0.299  0.757-   6 2.94   6 2.94  10 2.96   8 3.00   1 3.46
  19  0.750  0.794  0.826-   3 2.91  11 2.92  11 2.92   9 2.98
  20  0.250  0.206  0.174-   4 2.91  12 2.92  12 2.92  10 2.98
  21  0.250  0.903  0.085-   5 3.04  12 3.06  12 3.06  11 3.10   9 3.23   9 3.23
  22  0.750  0.097  0.915-   6 3.04  11 3.06  11 3.06  12 3.10  10 3.23  10 3.23
  23  0.250  0.763  0.489-   5 2.90   7 2.98   7 2.98   3 2.98   3 2.98
  24  0.750  0.237  0.511-   6 2.90   8 2.98   8 2.98   4 2.98   4 2.98
  25  0.250  0.470  0.367-   8 2.91   7 3.02   7 3.02   2 3.10   2 3.10
  26  0.750  0.530  0.633-   7 2.91   8 3.02   8 3.02   1 3.10   1 3.10

  LATTYP: Found a simple monoclinic cell.
 ALAT       =    19.0563816888
 B/A-ratio  =     0.2198421616
 C/A-ratio  =     1.5810019927
 COS(beta)  =    -0.9453773905

  Lattice vectors:

 A1 = (   0.0000000000, -13.7146876760, -13.2307605609)
 A2 = (  -4.1893961426,   0.0000000000,   0.0000000000)
 A3 = (   0.0000000000,  27.3173289478,  12.7071088003)

Analysis of symmetry for initial positions (statically):
 Subroutine PRICEL returns:
 Original cell was already a primitive cell.

 Routine SETGRP: Setting up the symmetry group for a
 simple monoclinic supercell.

 Subroutine GETGRP returns: Found  4 space group operations
 (whereof  2 operations were pure point group operations)
 out of a pool of  4 trial point group operations.

The static configuration has the point symmetry S_2 .
 The point group associated with its full space group is C_2h.

Analysis of symmetry for dynamics (positions and initial velocities):
 Subroutine PRICEL returns:
 Original cell was already a primitive cell.

 Routine SETGRP: Setting up the symmetry group for a
 simple monoclinic supercell.

 Subroutine GETGRP returns: Found  4 space group operations
 (whereof  2 operations were pure point group operations)
 out of a pool of  4 trial point group operations.

The dynamic configuration has the point symmetry S_2 .
 The point group associated with its full space group is C_2h.

 Subroutine INISYM returns: Found  4 space group operations
 (whereof  2 operations are pure point group operations),
 and found     1 'primitive' translations

 KPOINTS: pymatgen with grid density = 807 / numbe

Automatic generation of k-mesh.
Space group operators:
 irot       det(A)        alpha          n_x          n_y          n_z        tau_x        tau_y        tau_z
    1     1.000000     0.000000     1.000000     0.000000     0.000000     0.000000     0.000000     0.000000
    2    -1.000000     0.000000     1.000000     0.000000     0.000000     0.000000     0.000000     0.000000
    3     1.000000   179.999999     1.000000     0.000000     0.000000    -0.500000     0.000000     0.000000
    4    -1.000000   179.999999     1.000000     0.000000     0.000000    -0.500000     0.000000     0.000000

 Subroutine IBZKPT returns following result:

 Found      6 irreducible k-points:

 Following reciprocal coordinates:
            Coordinates               Weight
  0.000000  0.250000  0.250000      2.000000
  0.200000  0.250000  0.250000      4.000000
  0.400000  0.250000  0.250000      4.000000
  0.000000 -0.250000  0.250000      2.000000
  0.200000 -0.250000  0.250000      4.000000
  0.400000 -0.250000  0.250000      4.000000

 Following cartesian coordinates:
            Coordinates               Weight
  0.000000  0.019073  0.018021      2.000000
  0.047740  0.019073  0.018021      4.000000
  0.095479  0.019073  0.018021      4.000000
  0.000000 -0.017674  0.018320      2.000000
  0.047740 -0.017674  0.018320      4.000000
  0.095479 -0.017674  0.018320      4.000000

 SYSTEM =  CIS
 POSCAR =  Na4 Bi8 Se14

 Startparameter for this run:
   NWRITE =      2    write-flag & timer
   PREC   = medium    normal or accurate (medium, high low for compatibility)
   ISTART =      0    job   : 0-new  1-cont  2-samecut
   ICHARG =      2    charge: 1-file 2-atom 10-const
   ISPIN  =      1    spin polarized calculation?
   LNONCOLLINEAR =      F non collinear calculations
   LSORBIT =      F    spin-orbit coupling
   INIWAV =      1    electr: 0-lowe 1-rand  2-diag
   LASPH  =      T    aspherical Exc in radial PAW
   METAGGA=      F    non-selfconsistent MetaGGA calc.

 Electronic Relaxation 1
   ENCUT  =  300.0 eV  22.05 Ry    4.70 a.u.   5.92 19.22 19.43*2*pi/ulx,y,z
   ENINI  =  300.0     initial cutoff
   ENAUG  =  446.8 eV  augmentation charge cutoff
   NELM   =     60;   NELMIN=  2; NELMDL= -5     # of ELM steps
   EDIFF  = 0.1E-03   stopping-criterion for ELM
   LREAL  =      T    real-space projection
   NLSPLINE    = F    spline interpolate recip. space projectors
   LCOMPAT=      F    compatible to vasp.4.4
   GGA_COMPAT  = T    GGA compatible to vasp.4.4-vasp.4.6
   LMAXPAW     = -100 max onsite density
   LMAXMIX     =    4 max onsite mixed and CHGCAR
   VOSKOWN=      0    Vosko Wilk Nusair interpolation
   ROPT   =   -0.00200  -0.00200  -0.00200
 Ionic relaxation
   EDIFFG = -.5E-01   stopping-criterion for IOM
   NSW    =     99    number of steps for IOM
   NBLOCK =      1;   KBLOCK =     99    inner block; outer block
   IBRION =      2    ionic relax: 0-MD 1-quasi-New 2-CG
   NFREE  =      1    steps in history (QN), initial steepest desc. (CG)
   ISIF   =      3    stress and relaxation
   IWAVPR =     11    prediction:  0-non 1-charg 2-wave 3-comb
   ISYM   =      2    0-nonsym 1-usesym 2-fastsym
   LCORR  =      T    Harris-Foulkes like correction to forces

   POTIM  = 0.1000    time-step for ionic-motion
   TEIN   =    0.0    initial temperature
   TEBEG  =    0.0;   TEEND  =   0.0 temperature during run
   SMASS  =  -3.00    Nose mass-parameter (am)
   estimated Nose-frequenzy (Omega)   =  0.10E-29 period in steps =****** mass=  -0.401E-27a.u.
   SCALEE = 1.0000    scale energy and forces
   NPACO  =    256;   APACO  = 16.0  distance and # of slots for P.C.
   PSTRESS=    0.0 pullay stress

  Mass of Ions in am
   POMASS =  22.99208.98 78.96
  Ionic Valenz
   ZVAL   =   1.00  5.00  6.00
  Atomic Wigner-Seitz radii
  virtual crystal weights
   VCA    =   1.00  1.00  1.00
   NELECT =     128.0000    total number of electrons
   NUPDOWN=      -1.0000    fix difference up-down

 DOS related values:
   EMIN   =  10.00;   EMAX   =-10.00  energy-range for DOS
   EFERMI =   0.00
   ISMEAR =     0;   SIGMA  =   0.05  broadening in eV -4-tet -1-fermi 0-gaus

 Electronic relaxation 2 (details)
   IALGO  =     38    algorithm
   LDIAG  =      T    sub-space diagonalisation (order eigenvalues)
   LSUBROT=      F    optimize rotation matrix (better conditioning)
   TURBO    =      0    0=normal 1=particle mesh
   IRESTART =      0    0=no restart 2=restart with 2 vectors
   NREBOOT  =      0    no. of reboots
   NMIN     =      0    reboot dimension
   EREF     =   0.00    reference energy to select bands
   IMIX   =      4    mixing-type and parameters
     AMIX     =   0.40;   BMIX     =  1.00
     AMIX_MAG =   1.60;   BMIX_MAG =  1.00
     AMIN     =   0.10
     WC   =   100.;   INIMIX=   1;  MIXPRE=   1;  MAXMIX= -45

[...]
 d Force =-0.3321301E+00[-0.333E+00,-0.331E+00]  d Ewald  =-0.7395969E+00 0.407E+00

[...]

 d Force = 0.1455001E-02[ 0.129E-02, 0.162E-02]  d Energy = 0.2095530E-02-0.641E-03
 d Force = 0.8210760E+00[ 0.819E+00, 0.823E+00]  d Ewald  =-0.8885963E-01 0.910E+00

[...]

 d Force = 0.2628981E-02[ 0.139E-02, 0.387E-02]  d Energy = 0.3470257E-02-0.841E-03
 d Force = 0.2440546E+01[ 0.242E+01, 0.246E+01]  d Ewald  =-0.2892182E+00 0.273E+01

[...]

 d Force = 0.1680505E-03[-0.849E-04, 0.421E-03]  d Energy = 0.7924446E-04 0.888E-04
 d Force = 0.7314698E+00[ 0.730E+00, 0.733E+00]  d Ewald  =-0.9409946E-01 0.826E+00

[...]

 d Force = 0.8841972E-03[ 0.679E-03, 0.109E-02]  d Energy = 0.1064448E-02-0.180E-03
 d Force = 0.1842870E+00[ 0.182E+00, 0.186E+00]  d Ewald  = 0.1384476E+01-0.120E+01

[...]

 d Force = 0.6763154E-03[-0.435E-05, 0.136E-02]  d Energy =-0.1693064E-02 0.237E-02
 d Force = 0.3552530E+00[ 0.348E+00, 0.363E+00]  d Ewald  = 0.2748925E+01-0.239E+01

[...]

 d Force =-0.5057568E-03[-0.101E-02, 0.267E-05]  d Energy = 0.1734588E-02-0.224E-02
 d Force =-0.2836485E+00[-0.288E+00,-0.279E+00]  d Ewald  =-0.2164248E+01 0.188E+01

[...]

 d Force = 0.2473319E-02[ 0.222E-02, 0.272E-02]  d Energy = 0.1649029E-02 0.824E-03
 d Force =-0.5936658E+00[-0.597E+00,-0.590E+00]  d Ewald  = 0.1527973E+01-0.212E+01

[...]

 d Force = 0.1775980E-02[-0.895E-03, 0.445E-02]  d Energy =-0.1111972E-02 0.289E-02
 d Force =-0.1206754E+01[-0.122E+01,-0.119E+01]  d Ewald  = 0.3046305E+01-0.425E+01

[...]

 d Force =-0.5511034E-03[-0.172E-02, 0.617E-03]  d Energy = 0.1285451E-02-0.184E-02
 d Force = 0.8338106E+00[ 0.828E+00, 0.840E+00]  d Ewald  =-0.2092587E+01 0.293E+01

[...]

 Conjugate gradient step on ions:
 trial-energy change:   -0.002630  1 .order   -0.002608   -0.003113   -0.002103
  (g-gl).g = 0.540E-03      g.g   = 0.104E-02  gl.gl    = 0.204E-02
 g(Force)  = 0.730E-03   g(Stress)= 0.312E-03 ortho     =-0.227E-04
 gamma     =   0.26431
 trial     =   3.00551
 opt step  =   9.26233  (harmonic =   9.26233) maximal distance =0.00872192
 next E    =  -100.626675   (d E  =  -0.00480)

[...]

 eigenvalue-minimisations  :  1260
 total energy-change (2. order) :-0.1681677E-03  (-0.3201907E-03)
 number of electron     127.9999347 magnetization
 augmentation part      -28.4520392 magnetization

 Broyden mixing:
  rms(total) = 0.43316E-02    rms(broyden)= 0.43313E-02
  rms(prec ) = 0.51419E-02
  weight for this iteration     100.00

 eigenvalues of (default mixing * dielectric matrix)
  average eigenvalue GAMMA=   0.8552
  0.8552

[...]

--------------------------------------- Iteration     53(   3)  ---------------------------------------

 eigenvalue-minimisations  :   742
 total energy-change (2. order) : 0.2539463E-04  (-0.1610801E-04)
 number of electron     127.9999347 magnetization
 augmentation part      -28.4520392 magnetization

 Free energy of the ion-electron system (eV)
  alpha Z        PSCENC =       135.77413169
  Ewald energy   TEWEN  =     -4060.45937011
  -Hartree energ DENC   =      -923.97499556
  -exchange      EXHF   =         0.00000000
  -V(xc)+E(xc)   XCENC  =     -1030.99232423
  PAW double counting   =      6626.48242980    -5349.20715126
  entropy T*S    EENTRO =        -0.00000000
  eigenvalues    EBANDS =      -325.13474390
  atomic energy  EATOM  =      4826.88019477
  Solvation  Ediel_sol  =         0.00000000
  free energy    TOTEN  =      -100.63182881 eV

  energy without entropy =     -100.63182881  energy(sigma->0) =     -100.63182881

 average (electrostatic) potential at core
  the test charge radii are     1.1212  1.4024  1.0808
  (the norm of the test charge is              1.0000)
       1 -40.6080       2 -40.6080       3 -40.3699       4 -40.3699       5 -64.5285
       6 -64.5285       7 -64.5826       8 -64.5826       9 -64.4040      10 -64.4040
      11 -64.4961      12 -64.4961      13 -54.6194      14 -54.6194      15 -54.6932
      16 -54.6932      17 -54.8643      18 -54.8643      19 -54.7890      20 -54.7890
      21 -54.8221      22 -54.8221      23 -54.7631      24 -54.7631      25 -54.7536
      26 -54.7536

 E-fermi :   3.0086     XC(G=0):  -8.5488     alpha+bet : -8.3288

[...]

 k-point     6 :       0.4000   -0.2500    0.2500
  band No.  band energies     occupation
      1      -9.9785      2.00000
      2      -9.9440      2.00000
      3      -9.5764      2.00000
      4      -9.5415      2.00000
      5      -9.5360      2.00000
      6      -9.3434      2.00000
      7      -9.2609      2.00000
      8      -9.2124      2.00000
      9      -9.1777      2.00000
     10      -9.1379      2.00000
     11      -9.1278      2.00000
     12      -9.1160      2.00000
     13      -9.0225      2.00000
     14      -8.8913      2.00000
     15      -7.7646      2.00000
     16      -7.5524      2.00000
     17      -7.4744      2.00000
     18      -7.4308      2.00000
     19      -7.2569      2.00000
     20      -7.2381      2.00000
     21      -6.9533      2.00000
     22      -6.9023      2.00000
     23      -1.7252      2.00000
     24      -1.6081      2.00000
     25      -1.5174      2.00000
     26      -1.4708      2.00000
     27      -1.1977      2.00000
     28      -1.1097      2.00000
     29      -0.9864      2.00000
     30      -0.8710      2.00000
     31      -0.8046      2.00000
     32      -0.7853      2.00000
     33      -0.6168      2.00000
     34      -0.3429      2.00000
     35      -0.3065      2.00000
     36      -0.3004      2.00000
     37      -0.2049      2.00000
     38      -0.1595      2.00000
     39      -0.0623      2.00000
     40       0.0003      2.00000
     41       0.0067      2.00000
     42       0.2288      2.00000
     43       0.3639      2.00000
     44       0.5212      2.00000
     45       0.5754      2.00000
     46       0.7192      2.00000
     47       1.1180      2.00000
     48       1.2041      2.00000
     49       1.2531      2.00000
     50       1.3054      2.00000
     51       1.3622      2.00000
     52       1.4129      2.00000
     53       1.5017      2.00000
     54       1.5313      2.00000
     55       1.5979      2.00000
     56       1.6107      2.00000
     57       1.7602      2.00000
     58       1.7662      2.00000
     59       1.8524      2.00000
     60       1.8767      2.00000
[...]
     70       5.1252      0.00000
     71       5.2788      0.00000
     72       5.3799      0.00000
     73       5.4312      0.00000
     74       5.5670      0.00000
     75       5.6053      0.00000
     76       5.6779      0.00000
     77       5.8127      0.00000
     78       5.9429      0.00000
     79       6.0210      0.00000
     80       6.1442      0.00000
     81       6.3642      0.00000
     82       6.3785      0.00000
     83       6.4762      0.00000
     84       6.6353      0.00000

 soft charge-density along one line, spin component           1
         0         1         2         3         4         5         6         7         8         9
 total charge-density along one line

------------------------ aborting loop because EDIFF is reached ----------------------------------------

[...]

  FORCE on cell =-STRESS in cart. coord.  units (eV):
  Direction    XX          YY          ZZ          XY          YZ          ZX
  Alpha Z   135.77413   135.77413   135.77413
  Ewald   -1012.22560 -1441.83953 -1606.40872    -0.00000  -364.62005     0.00000
  Hartree   573.83251   238.12477   111.89515    -0.00000  -282.81898    -0.00000
  E(xc)    -497.29147  -496.90000  -497.41927     0.00000    -0.32557    -0.00000
  Local   -1415.68620  -648.27762  -356.15123     0.00000   644.80194    -0.00000
  n-local  1188.76814  1185.49531  1187.97180    -0.10798     0.62526     0.25747
  augment  -274.13071  -273.56895  -273.44399     0.00000    -0.26307     0.00000
  Kinetic  1301.19867  1301.45245  1298.00758     0.19257     2.53978     0.71498
  Fock        0.00000     0.00000     0.00000     0.00000     0.00000     0.00000
  Total       0.23946     0.26056     0.22547     0.00000    -0.06069     0.00000
  in kB       0.48657     0.52944     0.45813     0.00000    -0.12331     0.00000

 VOLUME and BASIS-vectors are now :
  energy-cutoff  :      300.00
  volume of cell :      788.50
      direct lattice vectors                 reciprocal lattice vectors
     4.195396432  0.000000000  0.000000000     0.238356498  0.000000000  0.000000000
     0.000000000 13.723673788 -0.471360252     0.000000000  0.072836723 -0.000875276
     0.000000000  0.164503541 13.689276477     0.000000000  0.002507973  0.073019741

  length of vectors
     4.195396432 13.731766191 13.690264858     0.238356498  0.072841982  0.073062799

 FORCES acting on ions
    electron-ion (+dipol)            ewald-force                    non-local-force                 convergence-correction
   0.145E-14 -.650E+01 0.761E+00   -.217E-14 0.639E+01 -.557E+00   0.000E+00 0.793E-01 -.193E+00   -.904E-16 0.936E-03 0.209E-02
   -.540E-14 0.650E+01 -.761E+00   0.191E-14 -.639E+01 0.557E+00   0.000E+00 -.793E-01 0.193E+00   -.934E-17 -.936E-03 -.209E-02
   0.235E-14 0.380E+01 0.265E+01   0.527E-15 -.367E+01 -.251E+01   0.000E+00 -.107E+00 -.163E+00   0.195E-16 -.212E-04 0.200E-02
   -.429E-15 -.380E+01 -.265E+01   -.253E-15 0.367E+01 0.251E+01   0.000E+00 0.107E+00 0.163E+00   -.131E-15 0.212E-04 -.200E-02
   -.754E-14 -.818E+01 -.356E+02   -.968E-14 0.940E+01 0.349E+02   0.000E+00 -.123E+01 0.712E+00   -.456E-14 0.129E-02 -.118E-01
   -.263E-13 0.818E+01 0.356E+02   0.446E-14 -.940E+01 -.349E+02   0.000E+00 0.123E+01 -.712E+00   0.292E-14 -.129E-02 0.118E-01
   -.310E-13 0.494E+01 -.178E+02   0.943E-15 -.466E+01 0.171E+02   0.000E+00 -.275E+00 0.637E+00   0.980E-15 0.404E-02 -.545E-03
   0.177E-14 -.494E+01 0.178E+02   0.396E-14 0.466E+01 -.171E+02   0.000E+00 0.275E+00 -.637E+00   -.367E-14 -.404E-02 0.545E-03
   -.258E-13 0.371E+02 0.215E+02   0.849E-14 -.339E+02 -.198E+02   0.000E+00 -.313E+01 -.161E+01   0.333E-15 0.451E-02 -.403E-02
   -.844E-14 -.371E+02 -.215E+02   -.101E-13 0.339E+02 0.198E+02   0.000E+00 0.313E+01 0.161E+01   -.258E-14 -.451E-02 0.403E-02
   0.194E-15 0.317E+02 0.306E+02   -.344E-15 -.310E+02 -.284E+02   0.000E+00 -.670E+00 -.209E+01   -.357E-14 0.191E-02 0.508E-02
   -.391E-13 -.317E+02 -.306E+02   -.698E-15 0.310E+02 0.284E+02   0.000E+00 0.670E+00 0.209E+01   0.202E-14 -.191E-02 -.508E-02
   0.199E-13 0.532E+02 0.277E+02   -.613E-14 -.556E+02 -.275E+02   0.000E+00 0.243E+01 -.251E+00   0.347E-14 -.411E-02 -.327E-02
   0.246E-13 -.532E+02 -.277E+02   0.107E-13 0.556E+02 0.275E+02   0.000E+00 -.243E+01 0.251E+00   0.206E-14 0.411E-02 0.327E-02
   0.253E-13 -.489E+02 -.849E+02   0.117E-14 0.497E+02 0.866E+02   0.000E+00 -.805E+00 -.164E+01   0.581E-14 0.567E-02 -.205E-01
   0.190E-13 0.489E+02 0.849E+02   0.459E-14 -.497E+02 -.866E+02   0.000E+00 0.805E+00 0.164E+01   0.243E-14 -.567E-02 0.205E-01
   0.227E-13 0.664E+02 0.492E+01   0.646E-14 -.677E+02 -.569E+01   0.434E-18 0.129E+01 0.784E+00   0.129E-13 0.352E-02 -.132E-01
   0.223E-13 -.664E+02 -.492E+01   -.409E-14 0.677E+02 0.569E+01   -.434E-18 -.129E+01 -.784E+00   -.959E-14 -.352E-02 0.132E-01
   0.250E-13 0.793E+02 0.792E+02   -.824E-14 -.807E+02 -.806E+02   0.173E-17 0.144E+01 0.142E+01   0.135E-13 -.668E-02 0.144E-02
   0.152E-13 -.793E+02 -.792E+02   0.506E-14 0.807E+02 0.806E+02   -.173E-17 -.144E+01 -.142E+01   -.730E-14 0.668E-02 -.144E-02
   0.219E-13 0.140E+02 -.485E-01   0.566E-14 -.143E+02 -.276E+00   0.000E+00 0.322E+00 0.323E+00   0.154E-14 -.173E-02 -.189E-02
   0.210E-13 -.140E+02 0.485E-01   -.966E-17 0.143E+02 0.276E+00   0.000E+00 -.322E+00 -.323E+00   0.332E-14 0.173E-02 0.189E-02
   0.224E-13 -.328E+02 -.771E+02   0.122E-13 0.337E+02 0.787E+02   0.000E+00 -.943E+00 -.147E+01   0.579E-15 0.550E-02 -.796E-02
   0.305E-13 0.328E+02 0.771E+02   -.965E-14 -.337E+02 -.787E+02   0.000E+00 0.943E+00 0.147E+01   0.102E-13 -.550E-02 0.796E-02
   0.209E-13 0.543E+02 0.615E+02   -.110E-13 -.551E+02 -.629E+02   0.000E+00 0.860E+00 0.144E+01   0.203E-15 -.186E-01 -.457E-02
   0.324E-13 -.543E+02 -.615E+02   0.111E-13 0.551E+02 0.629E+02   0.000E+00 -.860E+00 -.144E+01   0.676E-14 0.186E-01 0.457E-02
   0.185E-12 -.104E-12 -.211E-10   0.149E-13 -.782E-13 -.639E-13   0.000E+00 0.555E-15 0.000E+00   0.375E-13 -.509E-13 -.156E-12

 POSITION                                       TOTAL-FORCE (eV/Angst)
      1.04885      7.55838     10.59240         0.000000     -0.026506      0.013207
      3.14655      6.32980      2.62551         0.000000      0.026506     -0.013207
      3.14655     11.97428      7.92863         0.000000      0.022351     -0.025658
      1.04885      1.91389      5.28928         0.000000     -0.022351      0.025658
      1.04885     11.46956      3.62325         0.000000     -0.005209     -0.004731
      3.14655      2.41862      9.59467         0.000000      0.005209      0.004731
      3.14655      8.49715      5.74215         0.000000      0.012625      0.005969
      1.04885      5.39103      7.47577        -0.000000     -0.012625     -0.005969
      3.14655     10.05425     -0.04671         0.000000      0.049321      0.003415
      1.04885      3.83393     13.26463         0.000000     -0.049321     -0.003415
      1.04885     13.15434     11.32890         0.000000     -0.011716      0.025072
      3.14655      0.73384      1.88901        -0.000000      0.011716     -0.025072
      1.04885      8.22380     -0.33499         0.000000     -0.016597      0.017881
      3.14655      5.49987     -0.13637         0.000000      0.016597     -0.017881
      3.14655     -0.12795      4.60090         0.000000     -0.017260      0.020495
      1.04885      0.29245      9.08837         0.000000      0.017260     -0.020495
      3.14655      9.54295      2.94856         0.000000      0.004126     -0.004071
      1.04885      4.34523     10.26936        -0.000000     -0.004126      0.004071
      3.14655     11.15520     10.86715         0.000000      0.037307      0.032587
      1.04885      2.73298      2.35077         0.000000     -0.037307     -0.032587
      1.04885     12.37066      0.71293         0.000000      0.018458     -0.003264
      3.14655      1.51751     12.50499         0.000000     -0.018458      0.003264
      1.04885     10.50775      6.35663         0.000000     -0.007372      0.041572
      3.14655      3.38042      6.86128         0.000000      0.007372     -0.041572
      1.04885      6.57098      4.82433         0.000000      0.022970      0.030972
      3.14655      7.31720      8.39359         0.000000     -0.022970     -0.030972
    total drift:                                0.000000     -0.000000     -0.000000

  FREE ENERGIE OF THE ION-ELECTRON SYSTEM (eV)
  free  energy   TOTEN  =      -100.63182881 eV

  energy  without entropy=     -100.63182881  energy(sigma->0) =     -100.63182881

 d Force = 0.1382192E-02[ 0.110E-02, 0.166E-02]  d Energy = 0.1336128E-02 0.461E-04
 d Force =-0.9046729E+00[-0.908E+00,-0.902E+00]  d Ewald  =-0.4985671E+00-0.406E+00

 Conjugate gradient step on ions:
 trial-energy change:   -0.001336  1 .order   -0.001383   -0.001745   -0.001022
  (g-gl).g = 0.335E-03      g.g   = 0.421E-03  gl.gl    = 0.993E-03
 g(Force)  = 0.399E-03   g(Stress)= 0.225E-04 ortho     = 0.809E-04
 gamma     =   0.33690
 trial     =   3.89059
 opt step  =   9.38601  (harmonic =   9.38601) maximal distance =0.00702081
 next E    =  -100.632598   (d E  =  -0.00211)

 reached required accuracy - stopping structural energy minimisation

 total charge

# of ion       s       p       d       tot
    1        0.046   0.028   0.000   0.074
    2        0.046   0.028   0.000   0.074
    3        0.049   0.032   0.000   0.081
    4        0.049   0.032   0.000   0.081
    5        1.834   1.455   0.152   3.440
    6        1.834   1.455   0.152   3.440
    7        1.835   1.452   0.156   3.443
    8        1.835   1.452   0.156   3.443
    9        1.814   1.528   0.141   3.483
   10        1.814   1.528   0.141   3.483
   11        1.826   1.478   0.147   3.451
   12        1.826   1.478   0.147   3.451
   13        1.477   2.298   0.017   3.792
   14        1.477   2.298   0.017   3.792
   15        1.463   2.336   0.013   3.813
   16        1.463   2.336   0.013   3.813
   17        1.469   2.321   0.018   3.808
   18        1.469   2.321   0.018   3.808
   19        1.470   2.309   0.014   3.793
   20        1.470   2.309   0.014   3.793
   21        1.470   2.313   0.018   3.801
   22        1.470   2.313   0.018   3.801
   23        1.462   2.339   0.013   3.815
   24        1.462   2.339   0.013   3.815
   25        1.462   2.333   0.013   3.808
   26        1.462   2.333   0.013   3.808
tot         35.354  44.443   1.406  81.202