 vasp.5.4.4.18Apr17-6-g9f103f2a35 (build Oct 27 2022 13:04:57) complex

 executed on             LinuxIFC date 2024.06.30  00:56:58

 INCAR:
 POTCAR:    PAW_PBE K_pv 17Jan2003
 POTCAR:    PAW_PBE Sc 04Feb2005
 POTCAR:    PAW_PBE Se 06Sep2000

 POTCAR:    PAW_PBE K_pv 17Jan2003
   VRHFIN =K:  p6s1

   TITEL  = PAW_PBE K_pv 17Jan2003
   POMASS =   39.098; ZVAL   =    7.000    mass and valenz
   ENMAX  =  116.731; ENMIN  =   87.548 eV

 POTCAR:    PAW_PBE Sc 04Feb2005
   VRHFIN =Sc: 3p4s3d

   TITEL  = PAW_PBE Sc 04Feb2005
   POMASS =   44.956; ZVAL   =    3.000    mass and valenz
   ENMAX  =  154.763; ENMIN  =  116.072 eV

 POTCAR:    PAW_PBE Se 06Sep2000
   VRHFIN =Se: s2p4

   TITEL  = PAW_PBE Se 06Sep2000
   POMASS =   78.960; ZVAL   =    6.000    mass and valenz
   ENMAX  =  211.555; ENMIN  =  158.666 eV

 Optimization of the real space projectors (new method)

 maximal supplied QI-value         = 12.09
 optimisation between [QCUT,QGAM] = [  8.83, 17.66] = [ 21.83, 87.31] Ry
 Optimized for a Real-space Cutoff    1.69 Angstroem

   l    n(q)    QCUT    max X(q) W(low)/X(q) W(high)/X(q)  e(spline)
   1      8     8.829    42.457    0.27E-03    0.59E-03    0.25E-06
   1      8     8.829    43.305    0.28E-03    0.61E-03    0.26E-06
   0      9     8.829    47.210    0.17E-02    0.12E-03    0.43E-06
   0      9     8.829    15.951    0.11E-02    0.76E-04    0.28E-06
   2      8     8.829     5.674    0.29E-03    0.69E-04    0.39E-07
 Optimization of the real space projectors (new method)

[...]

   l    n(q)    QCUT    max X(q) W(low)/X(q) W(high)/X(q)  e(spline)
   2      8     8.855   127.680    0.85E-03    0.55E-03    0.13E-06
   2      8     8.855   113.778    0.85E-03    0.55E-03    0.13E-06
   0      9     8.855    22.778    0.87E-04    0.17E-03    0.16E-06
   0      9     8.855    11.292    0.61E-04    0.12E-03    0.12E-06
   1      9     8.855    11.256    0.72E-04    0.28E-04    0.22E-07
 Optimization of the real space projectors (new method)

 maximal supplied QI-value         = 17.95
 optimisation between [QCUT,QGAM] = [  8.80, 17.59] = [ 21.67, 86.68] Ry
 Optimized for a Real-space Cutoff    1.19 Angstroem

   l    n(q)    QCUT    max X(q) W(low)/X(q) W(high)/X(q)  e(spline)
   0      6     8.797   133.320    0.14E-02    0.11E-02    0.95E-07
   0      6     8.797   111.601    0.15E-02    0.12E-02    0.10E-06
   1      6     8.797    47.222    0.19E-02    0.96E-03    0.11E-06
   1      6     8.797    33.775    0.19E-02    0.99E-03    0.11E-06
   2      5     8.797     3.720    0.16E-02    0.14E-02    0.40E-07
  PAW_PBE K_pv 17Jan2003                :
  PAW_PBE Sc 04Feb2005                  :
  PAW_PBE Se 06Sep2000                  :

 POSCAR: K2 Sc6 Se10
  positions in direct lattice
 exchange correlation table for  LEXCH =        8
   RHO(1)=    0.500       N(1)  =     2000
   RHO(2)=  100.500       N(2)  =     4000

 ion  position               nearest neighbor table
   1  0.745  0.334  0.174-  15 3.19  17 3.19  15 3.19  17 3.19  12 3.37   9 3.37  12 3.38  11 3.71
                             5 3.86   4 4.21   7 4.41   7 4.42   8 4.46   3 4.51   3 4.51   2 4.52
   2  0.255  0.666  0.826-  16 3.19  18 3.19  16 3.19  18 3.19  11 3.37  10 3.37  11 3.38  12 3.71
                             6 3.86   4 4.21   8 4.42   8 4.42   7 4.46   3 4.51   3 4.51   1 4.52
   3  0.500  0.000  1.000-   9 2.38  10 2.38  10 2.38   9 2.38  12 2.49  11 2.49   8 3.47   7 3.47
                             8 3.47   7 3.47   2 4.51   1 4.51   2 4.51   1 4.51
   4  0.500  0.500  0.500-  17 2.43  18 2.43  18 2.43  17 2.43  14 2.43  13 2.43   8 3.60   7 3.60
                             8 3.60   7 3.61   1 4.21   2 4.21
   5  0.836  0.940  0.389-  16 2.34  15 2.36  15 2.36   9 2.42  13 2.50  13 2.50   7 3.00   6 3.40
                             6 3.41   1 3.86
   6  0.164  0.060  0.611-  15 2.34  16 2.36  16 2.36  10 2.42  14 2.50  14 2.50   8 3.00   5 3.40
                             5 3.41   2 3.86
   7  0.021  0.732  0.225-  17 2.37  11 2.38  11 2.38   9 2.42  13 2.53  13 2.53   5 3.00   3 3.47
                             3 3.47   4 3.60   4 3.61   1 4.41   1 4.42   2 4.46
   8  0.979  0.268  0.775-  18 2.37  12 2.38  12 2.38  10 2.42  14 2.53  14 2.53   6 3.00   3 3.47
                             3 3.47   4 3.60   4 3.60   2 4.42   2 4.42   1 4.46
   9  0.927  0.993  0.152-   3 2.38   3 2.38   5 2.42   7 2.42   1 3.37
  10  0.073  0.007  0.848-   3 2.38   3 2.38   6 2.42   8 2.42   2 3.37
  11  0.597  0.732  0.074-   7 2.38   7 2.38   3 2.49   2 3.37   2 3.38   1 3.71
  12  0.403  0.268  0.926-   8 2.38   8 2.38   3 2.49   1 3.37   1 3.38   2 3.71
  13  0.427  0.756  0.389-   4 2.43   5 2.50   5 2.50   7 2.53   7 2.53
  14  0.573  0.244  0.611-   4 2.43   6 2.50   6 2.50   8 2.53   8 2.53
  15  0.256  0.104  0.382-   6 2.34   5 2.36   5 2.36   1 3.19   1 3.19
  16  0.743  0.896  0.618-   5 2.34   6 2.36   6 2.36   2 3.19   2 3.19
  17  0.083  0.487  0.347-   7 2.37   4 2.43   4 2.43   1 3.19   1 3.19
  18  0.917  0.513  0.653-   8 2.37   4 2.43   4 2.43   2 3.19   2 3.19

  LATTYP: Found a triclinic cell.
 ALAT       =    11.8574682033
 B/A-ratio  =     1.3714984827
 C/A-ratio  =     0.2970818413
 COS(alpha) =     0.0000774490
 COS(beta)  =     0.4456297909
 COS(gamma) =     0.7344375593

  Lattice vectors:

 A1 = (   2.9965195900,   5.2839992900,  10.1833086000)
 A2 = (  12.6871385200,   0.0006265700,  10.1737608900)
 A3 = (   0.0002148400,   3.5226384800,  -0.0000487600)

Analysis of symmetry for initial positions (statically):
 Subroutine PRICEL returns:
 Original cell was already a primitive cell.

 Routine SETGRP: Setting up the symmetry group for a
 triclinic supercell.

 Subroutine GETGRP returns: Found  1 space group operations
 (whereof  1 operations were pure point group operations)
 out of a pool of  2 trial point group operations.

The static configuration has the point symmetry C_1 .

Analysis of symmetry for dynamics (positions and initial velocities):
 Subroutine PRICEL returns:
 Original cell was already a primitive cell.

 Routine SETGRP: Setting up the symmetry group for a
 triclinic supercell.

 Subroutine GETGRP returns: Found  1 space group operations
 (whereof  1 operations were pure point group operations)
 out of a pool of  2 trial point group operations.

The dynamic configuration has the point symmetry C_1 .

 Subroutine INISYM returns: Found  1 space group operations
 (whereof  1 operations are pure point group operations),
 and found     1 'primitive' translations

 KPOINTS: pymatgen with grid density = 807 / numbe

Automatic generation of k-mesh.
Space group operators:
 irot       det(A)        alpha          n_x          n_y          n_z        tau_x        tau_y        tau_z
    1     1.000000     0.000001     1.000000     0.000000     0.000000     0.000000     0.000000     0.000000

 Subroutine IBZKPT returns following result:

 Found     12 irreducible k-points:

 Following reciprocal coordinates:
            Coordinates               Weight
  0.083333  0.250000  0.250000      2.000000
  0.250000  0.250000  0.250000      2.000000
  0.416667  0.250000  0.250000      2.000000
 -0.416667  0.250000  0.250000      2.000000
 -0.250000  0.250000  0.250000      2.000000
 -0.083333  0.250000  0.250000      2.000000
  0.083333 -0.250000  0.250000      2.000000
  0.250000 -0.250000  0.250000      2.000000
  0.416667 -0.250000  0.250000      2.000000
 -0.416667 -0.250000  0.250000      2.000000
 -0.250000 -0.250000  0.250000      2.000000
 -0.083333 -0.250000  0.250000      2.000000

 Following cartesian coordinates:
            Coordinates               Weight
 -0.021510 -0.023655 -0.014129      2.000000
 -0.012903 -0.070969 -0.008478      2.000000
 -0.004295 -0.118282 -0.002827      2.000000
 -0.047333  0.118285 -0.031082      2.000000
 -0.038725  0.070972 -0.025431      2.000000
 -0.030118  0.023658 -0.019780      2.000000
  0.030069 -0.023659 -0.029305      2.000000
  0.038677 -0.070972 -0.023654      2.000000
  0.047284 -0.118286 -0.018003      2.000000
  0.004246  0.118282 -0.046258      2.000000
  0.012854  0.070968 -0.040607      2.000000
  0.021462  0.023655 -0.034956      2.000000

 SYSTEM =  CIS
 POSCAR =  K2 Sc6 Se10

 Startparameter for this run:
   NWRITE =      2    write-flag & timer
   PREC   = medium    normal or accurate (medium, high low for compatibility)
   ISTART =      0    job   : 0-new  1-cont  2-samecut
   ICHARG =      2    charge: 1-file 2-atom 10-const
   ISPIN  =      1    spin polarized calculation?
   LNONCOLLINEAR =      F non collinear calculations
   LSORBIT =      F    spin-orbit coupling
   INIWAV =      1    electr: 0-lowe 1-rand  2-diag
   LASPH  =      T    aspherical Exc in radial PAW
   METAGGA=      F    non-selfconsistent MetaGGA calc.

 Electronic Relaxation 1
   ENCUT  =  300.0 eV  22.05 Ry    4.70 a.u.   4.97 13.91 15.20*2*pi/ulx,y,z
   ENINI  =  300.0     initial cutoff
   ENAUG  =  446.8 eV  augmentation charge cutoff
   NELM   =     60;   NELMIN=  2; NELMDL= -5     # of ELM steps
   EDIFF  = 0.1E-03   stopping-criterion for ELM
   LREAL  =      T    real-space projection
   NLSPLINE    = F    spline interpolate recip. space projectors
   LCOMPAT=      F    compatible to vasp.4.4
   GGA_COMPAT  = T    GGA compatible to vasp.4.4-vasp.4.6
   LMAXPAW     = -100 max onsite density
   LMAXMIX     =    4 max onsite mixed and CHGCAR
   VOSKOWN=      0    Vosko Wilk Nusair interpolation
   ROPT   =   -0.00200  -0.00200  -0.00200
 Ionic relaxation
   EDIFFG = -.5E-01   stopping-criterion for IOM
   NSW    =     99    number of steps for IOM
   NBLOCK =      1;   KBLOCK =     99    inner block; outer block
   IBRION =      2    ionic relax: 0-MD 1-quasi-New 2-CG
   NFREE  =      1    steps in history (QN), initial steepest desc. (CG)
   ISIF   =      3    stress and relaxation
   IWAVPR =     11    prediction:  0-non 1-charg 2-wave 3-comb
   ISYM   =      2    0-nonsym 1-usesym 2-fastsym
   LCORR  =      T    Harris-Foulkes like correction to forces

   POTIM  = 0.1000    time-step for ionic-motion
   TEIN   =    0.0    initial temperature
   TEBEG  =    0.0;   TEEND  =   0.0 temperature during run
   SMASS  =  -3.00    Nose mass-parameter (am)
   estimated Nose-frequenzy (Omega)   =  0.10E-29 period in steps =****** mass=  -0.284E-27a.u.
   SCALEE = 1.0000    scale energy and forces
   NPACO  =    256;   APACO  = 16.0  distance and # of slots for P.C.
   PSTRESS=    0.0 pullay stress

  Mass of Ions in am
   POMASS =  39.10 44.96 78.96
  Ionic Valenz
   ZVAL   =   7.00  3.00  6.00
  Atomic Wigner-Seitz radii
  virtual crystal weights
   VCA    =   1.00  1.00  1.00
   NELECT =      92.0000    total number of electrons
   NUPDOWN=      -1.0000    fix difference up-down

 DOS related values:
   EMIN   =  10.00;   EMAX   =-10.00  energy-range for DOS
   EFERMI =   0.00
   ISMEAR =     0;   SIGMA  =   0.05  broadening in eV -4-tet -1-fermi 0-gaus

 Electronic relaxation 2 (details)
   IALGO  =     38    algorithm
   LDIAG  =      T    sub-space diagonalisation (order eigenvalues)
   LSUBROT=      F    optimize rotation matrix (better conditioning)
   TURBO    =      0    0=normal 1=particle mesh
[...]
    -10.53223     -5.28532     -6.28135         3.608103     -0.043328     -3.324782
     -5.75439     -1.76128     -3.52582         3.671119      0.008868      1.474400
     -6.93295     -5.28461     -6.64786        -3.672895     -0.008525     -1.472020
    total drift:                                0.000375     -0.008798     -0.007431

  FREE ENERGIE OF THE ION-ELECTRON SYSTEM (eV)
  free  energy   TOTEN  =       -91.99713657 eV

  energy  without entropy=      -91.99713657  energy(sigma->0) =      -91.99713657

[...]

 E-fermi :   3.6094     XC(G=0):  -9.6602     alpha+bet :-10.3821

[...]

 d Force = 0.1026308E+01[ 0.621E+00, 0.143E+01]  d Energy = 0.8775233E+01-0.775E+01
 d Force = 0.2232792E+02[ 0.200E+02, 0.246E+02]  d Ewald  =-0.1322457E+03 0.155E+03

 Steepest descent step on ions:
 trial-energy change:   -8.775233  1 .order   -9.086980  -12.284958   -5.889003
  (g-gl).g = 0.123E+02      g.g   = 0.123E+02  gl.gl    = 0.000E+00
 g(Force)  = 0.137E+01   g(Stress)= 0.109E+02 ortho     = 0.000E+00
 gamma     =   0.00000
 trial     =   1.00000
 opt step  =   1.92074  (harmonic =   1.92074) maximal distance =0.06803429
 next E    =  -103.795233   (d E  = -11.79810)

[...]

 E-fermi :   2.6428     XC(G=0):  -9.1762     alpha+bet : -9.2588

[...]

 d Force = 0.1528883E-01[-0.784E-02, 0.384E-01]  d Energy = 0.2953159E+00-0.280E+00
 d Force = 0.5263725E+01[ 0.507E+01, 0.546E+01]  d Ewald  =-0.4118132E+02 0.464E+02

[...]

 d Force =-0.3099470E-02[-0.428E-02,-0.192E-02]  d Energy = 0.1086182E-01-0.140E-01
 d Force = 0.1232207E+01[ 0.122E+01, 0.124E+01]  d Ewald  =-0.1009140E+02 0.113E+02

[...]

 d Force =-0.1568148E-03[-0.159E-03,-0.154E-03]  d Energy =-0.5967418E-04-0.971E-04
 d Force = 0.4398887E-01[ 0.440E-01, 0.440E-01]  d Ewald  =-0.3640797E+00 0.408E+00

[...]

 d Force = 0.4203439E-01[ 0.379E-01, 0.461E-01]  d Energy = 0.4415970E-01-0.213E-02
 d Force =-0.4147078E+00[-0.430E+00,-0.400E+00]  d Ewald  =-0.2056333E+01 0.164E+01

 Conjugate gradient step on ions:
 trial-energy change:   -0.044160  1 .order   -0.044270   -0.048793   -0.039748
  (g-gl).g = 0.324E-01      g.g   = 0.384E-01  gl.gl    = 0.123E+02
 g(Force)  = 0.364E-01   g(Stress)= 0.198E-02 ortho     = 0.596E-02
 gamma     =   0.00264
 trial     =   1.26988
 opt step  =   5.07952  (harmonic =   6.85013) maximal distance =0.04615254
 next E    =  -104.377951   (d E  =  -0.13160)

[...]

 d Force =-0.5912857E-01[-0.201E+00, 0.826E-01]  d Energy =-0.7117652E-01 0.120E-01
 d Force =-0.3648107E+01[-0.418E+01,-0.312E+01]  d Ewald  =-0.1348340E+02 0.984E+01

[...]

 d Force = 0.7095150E-01[-0.364E-02, 0.146E+00]  d Energy = 0.8189753E-01-0.109E-01
 d Force = 0.2760010E+01[ 0.248E+01, 0.304E+01]  d Ewald  = 0.9974103E+01-0.721E+01

[...]

 d Force = 0.4840151E-02[ 0.441E-02, 0.527E-02]  d Energy = 0.5390839E-02-0.551E-03
 d Force =-0.4981592E+00[-0.501E+00,-0.495E+00]  d Ewald  = 0.6931258E+00-0.119E+01

 Conjugate gradient step on ions:
 trial-energy change:   -0.005391  1 .order   -0.005672   -0.006050   -0.005294
  (g-gl).g = 0.263E-02      g.g   = 0.250E-02  gl.gl    = 0.384E-01
 g(Force)  = 0.212E-02   g(Stress)= 0.378E-03 ortho     =-0.222E-03
 gamma     =   0.06837
 trial     =   2.43923
 opt step  =   9.75691  (harmonic =  19.52638) maximal distance =0.01674535
 next E    =  -104.405086   (d E  =  -0.02421)

[...]

 d Force = 0.3293139E-03[ 0.301E-03, 0.358E-03]  d Energy =-0.1049374E-03 0.434E-03
 d Force =-0.6603998E-01[-0.671E-01,-0.649E-01]  d Ewald  =-0.1420720E+01 0.135E+01

[...]

 d Force = 0.1381226E-02[-0.336E-03, 0.310E-02]  d Energy = 0.1249891E-02 0.131E-03
 d Force =-0.8445241E+00[-0.857E+00,-0.832E+00]  d Ewald  =-0.1332511E+01 0.488E+00

[...]

 d Force = 0.4398297E-03[ 0.379E-03, 0.501E-03]  d Energy = 0.3220401E-03 0.118E-03
 d Force =-0.3407188E+00[-0.341E+00,-0.340E+00]  d Ewald  = 0.1147162E+01-0.149E+01

[...]

 d Force = 0.4438135E-03[ 0.130E-03, 0.758E-03]  d Energy =-0.1368467E-02 0.181E-02
 d Force =-0.6843711E+00[-0.687E+00,-0.682E+00]  d Ewald  = 0.2294140E+01-0.298E+01

[...]

 d Force =-0.2734174E-03[-0.447E-03,-0.997E-04]  d Energy = 0.1256453E-02-0.153E-02
 d Force = 0.5245329E+00[ 0.523E+00, 0.526E+00]  d Ewald  =-0.1754120E+01 0.228E+01

[...]

 Conjugate gradient step on ions:
 trial-energy change:   -0.001922  1 .order   -0.001892   -0.002350   -0.001435
  (g-gl).g = 0.692E-03      g.g   = 0.719E-03  gl.gl    = 0.760E-03
 g(Force)  = 0.439E-03   g(Stress)= 0.280E-03 ortho     =-0.132E-03
 gamma     =   0.91061
 trial     =   3.92083
 opt step  =  10.06683  (harmonic =  10.06683) maximal distance =0.01108708
 next E    =  -104.409025   (d E  =  -0.00302)

[...]

 d Force = 0.1146608E-02[ 0.275E-03, 0.202E-02]  d Energy = 0.9008964E-03 0.246E-03
 d Force =-0.4469192E+00[-0.450E+00,-0.444E+00]  d Ewald  =-0.9587452E+00 0.512E+00

[...]

 d Force = 0.3353148E-03[ 0.225E-03, 0.445E-03]  d Energy = 0.8410297E-04 0.251E-03
 d Force = 0.1960330E+00[ 0.195E+00, 0.197E+00]  d Ewald  =-0.6470140E+00 0.843E+00

[...]

 eigenvalue-minimisations  :  2184
 total energy-change (2. order) :-0.5119022E-03  (-0.1177645E-02)
 number of electron      92.0000198 magnetization
 augmentation part       -0.8756996 magnetization

[...]

 Broyden mixing:
  rms(total) = 0.64944E-02    rms(broyden)= 0.64943E-02
  rms(prec ) = 0.79405E-02
  weight for this iteration     100.00

 eigenvalues of (default mixing * dielectric matrix)
  average eigenvalue GAMMA=   1.2435
  1.2435  1.2435

[...]

--------------------------------------- Iteration     27(   4)  ---------------------------------------

 eigenvalue-minimisations  :  1624
 total energy-change (2. order) : 0.7774855E-04  (-0.6152476E-04)
 number of electron      92.0000198 magnetization
 augmentation part       -0.8735119 magnetization

 Free energy of the ion-electron system (eV)
  alpha Z        PSCENC =       216.50942341
  Ewald energy   TEWEN  =     -3325.65291600
  -Hartree energ DENC   =      -588.57577187
  -exchange      EXHF   =         0.00000000
  -V(xc)+E(xc)   XCENC  =      -488.79292405
  PAW double counting   =      5445.11091739    -4770.56712579
  entropy T*S    EENTRO =        -0.00000000
  eigenvalues    EBANDS =      -332.50059507
  atomic energy  EATOM  =      3740.05621236
  Solvation  Ediel_sol  =         0.00000000
  free energy    TOTEN  =      -104.41277963 eV

  energy without entropy =     -104.41277963  energy(sigma->0) =     -104.41277963

 average (electrostatic) potential at core
  the test charge radii are     1.3383  1.3152  1.0808
  (the norm of the test charge is              1.0000)
       1 -12.0793       2 -12.0831       3 -44.4010       4 -44.3875       5 -44.3534
       6 -44.3551       7 -44.4023       8 -44.4042       9 -55.1841      10 -55.1825
      11 -54.9888      12 -54.9891      13 -55.3491      14 -55.3498      15 -55.0082
      16 -55.0078      17 -54.8309      18 -54.8338

 E-fermi :   2.2131     XC(G=0):  -8.9269     alpha+bet : -8.7294

[...]

 k-point    12 :      -0.0833   -0.2500    0.2500
  band No.  band energies     occupation
      1     -11.5573      2.00000
      2     -11.5491      2.00000
      3     -11.4971      2.00000
      4     -11.4880      2.00000
      5     -11.4830      2.00000
      6     -11.4793      2.00000
      7     -10.5441      2.00000
      8     -10.4347      2.00000
      9     -10.0068      2.00000
     10      -9.8818      2.00000
     11      -9.7377      2.00000
     12      -9.6092      2.00000
     13      -9.5672      2.00000
     14      -9.5569      2.00000
     15      -9.5165      2.00000
     16      -9.3377      2.00000
     17      -1.9965      2.00000
     18      -1.6696      2.00000
     19      -1.5019      2.00000
     20      -1.3107      2.00000
     21      -1.2502      2.00000
     22      -0.9724      2.00000
     23      -0.6685      2.00000
     24      -0.5199      2.00000
     25      -0.3613      2.00000
     26      -0.1952      2.00000
     27      -0.0609      2.00000
     28      -0.0255      2.00000
     29       0.0682      2.00000
     30       0.1457      2.00000
     31       0.2753      2.00000
     32       0.4241      2.00000
     33       0.4638      2.00000
     34       0.5906      2.00000
     35       0.6415      2.00000
     36       0.6616      2.00000
     37       0.7277      2.00000
     38       0.8750      2.00000
     39       0.9262      2.00000
     40       1.1455      2.00000
     41       1.1994      2.00000
     42       1.2972      2.00000
     43       1.4852      2.00000
     44       1.6779      2.00000
     45       1.7835      2.00000
     46       1.9182      2.00000
     47       3.4032      0.00000
     48       3.5236      0.00000
     49       3.7798      0.00000
     50       4.0232      0.00000
     51       4.0426      0.00000
     52       4.0986      0.00000
     53       4.1549      0.00000
     54       4.2263      0.00000
     55       4.2826      0.00000
     56       4.3419      0.00000

 soft charge-density along one line, spin component           1
         0         1         2         3         4         5         6         7         8         9
 total charge-density along one line

------------------------ aborting loop because EDIFF is reached ----------------------------------------

[...]

  FORCE on cell =-STRESS in cart. coord.  units (eV):
  Direction    XX          YY          ZZ          XY          YZ          ZX
  Alpha Z   216.50942   216.50942   216.50942
  Ewald   -1187.69844 -1022.45644 -1115.50663     0.21913    -1.51890    13.04836
  Hartree   156.17584   251.99859   180.39886    -0.00545    -0.35956    15.93123
  E(xc)    -345.98594  -346.48059  -347.08004    -0.01110     0.03247     0.12337
  Local    -146.45251  -403.46736  -242.53406    -0.20625     1.84427   -29.25896
  n-local   420.75991   424.43892   428.12068    -0.03872    -0.14013    -0.34308
  augment     8.60341     7.52413     8.18741    -0.00575    -0.00764     0.25954
  Kinetic   877.93492   871.76241   871.66416    -0.05933     0.14716     0.20950
  Fock        0.00000     0.00000     0.00000     0.00000     0.00000     0.00000
  Total      -0.15338    -0.17092    -0.24019    -0.10748    -0.00234    -0.03003
  in kB      -0.52201    -0.58170    -0.81746    -0.36579    -0.00796    -0.10222

 VOLUME and BASIS-vectors are now :
  energy-cutoff  :      300.00
  volume of cell :      470.76
      direct lattice vectors                 reciprocal lattice vectors
    -0.001356025 -3.896916531 -0.000233112     0.047005315 -0.256631332  0.030635383
   -10.678687046 -1.952244250  0.030944794    -0.093571448  0.000030936  0.027151073
    -3.280632237 -1.950294361-11.303906064    -0.000257124  0.000005377 -0.088391300

  length of vectors
     3.896916774 10.855716108 11.930820939     0.262693104  0.097430989  0.088391675

 FORCES acting on ions
    electron-ion (+dipol)            ewald-force                    non-local-force                 convergence-correction
   0.397E+02 -.180E+00 -.548E+02   -.392E+02 0.171E+00 0.536E+02   -.526E+00 0.796E-02 0.126E+01   0.716E-02 0.574E-04 -.550E-02
   -.398E+02 0.174E+00 0.547E+02   0.392E+02 -.165E+00 -.534E+02   0.532E+00 -.816E-02 -.126E+01   -.108E-01 -.163E-03 0.619E-02
   -.262E-01 -.104E-02 -.487E-01   0.255E-01 0.461E-03 0.502E-01   0.502E-03 -.105E-02 0.523E-02   0.687E-03 0.103E-03 -.599E-03
   -.528E-01 0.187E-01 0.136E-01   0.511E-01 -.176E-01 -.123E-01   0.291E-02 -.303E-02 0.542E-02   -.542E-04 -.673E-04 0.101E-02
   -.347E+01 0.137E+00 0.463E+00   0.291E+01 -.129E+00 -.642E+00   0.569E+00 -.247E-02 0.161E+00   -.450E-03 0.134E-04 -.785E-03
   0.340E+01 -.189E+00 -.427E+00   -.284E+01 0.180E+00 0.606E+00   -.562E+00 0.120E-01 -.155E+00   0.973E-03 0.479E-03 0.125E-02
   -.186E+02 0.234E+00 -.964E+01   0.190E+02 -.221E+00 0.999E+01   -.354E+00 -.195E-01 -.318E+00   0.441E-02 -.100E-02 0.647E-03
   0.187E+02 -.205E+00 0.958E+01   -.190E+02 0.193E+00 -.993E+01   0.350E+00 0.132E-01 0.323E+00   -.409E-02 0.790E-03 0.163E-03
   0.265E+02 -.192E+00 -.864E+01   -.270E+02 0.189E+00 0.886E+01   0.476E+00 0.771E-02 -.236E+00   -.795E-02 0.235E-03 0.796E-02
   -.266E+02 0.185E+00 0.862E+01   0.271E+02 -.182E+00 -.884E+01   -.460E+00 -.359E-01 0.238E+00   0.132E-01 -.749E-03 -.694E-02
   -.674E+02 -.264E+00 -.248E+02   0.677E+02 0.260E+00 0.248E+02   -.202E+00 0.280E-01 -.694E-01   0.402E-03 -.316E-04 0.651E-02
   0.675E+02 0.233E+00 0.247E+02   -.677E+02 -.231E+00 -.247E+02   0.218E+00 -.204E-01 0.579E-01   -.154E-02 0.388E-03 -.103E-01
   -.105E+02 -.167E+00 0.171E+02   0.107E+02 0.175E+00 -.178E+02   -.185E+00 0.182E-01 0.686E+00   0.696E-02 0.110E-02 -.366E-02
   0.106E+02 0.147E+00 -.171E+02   -.108E+02 -.155E+00 0.177E+02   0.173E+00 0.266E-02 -.689E+00   -.395E-02 -.124E-02 0.661E-02
   0.353E+02 -.873E-02 -.251E+02   -.355E+02 0.216E-01 0.251E+02   0.298E+00 -.374E-01 0.689E-01   -.363E-02 -.107E-03 0.640E-02
   -.352E+02 0.103E+00 0.253E+02   0.355E+02 -.114E+00 -.253E+02   -.290E+00 0.173E-01 -.768E-01   0.207E-02 0.382E-03 -.106E-01
   -.276E+02 0.610E-01 -.323E+02   0.279E+02 -.636E-01 0.325E+02   -.265E+00 -.850E-02 -.125E+00   0.105E-02 -.901E-03 -.583E-03
   0.276E+02 -.850E-01 0.325E+02   -.279E+02 0.870E-01 -.326E+02   0.267E+00 0.419E-02 0.142E+00   -.331E-02 0.787E-03 0.320E-02
   -.631E-02 0.111E-02 -.167E-02   -.711E-14 -.163E-13 0.142E-13   0.421E-01 -.251E-01 0.236E-01   0.111E-02 0.676E-04 0.965E-03

 POSITION                                       TOTAL-FORCE (eV/Angst)
     -4.09558     -3.90129     -1.99994         0.006410      0.000861      0.002020
     -9.86506     -3.89774     -9.27567        -0.010952      0.002152     -0.003589
     -0.00130     -1.94847     -0.00125        -0.001603     -0.000190      0.004867
     -6.97937     -3.89978     -5.63650        -0.000915     -0.000647      0.006478
    -11.36338     -5.85648     -4.40204         0.009674      0.007441     -0.019888
     -2.59637     -1.94356     -6.87257        -0.008286      0.004478      0.024235
     -8.47185     -1.96424     -2.46706         0.004706     -0.006142      0.033085
     -5.49009     -5.83495     -8.80554        -0.006773      0.003583     -0.035107
    -11.12959     -5.85668     -1.72270        -0.012760      0.006012     -0.003984
     -2.83406     -1.94292     -9.55067         0.025039     -0.032240      0.005246
     -7.98467     -3.91762     -0.70290         0.019285      0.026069     -0.035147
     -5.97689     -3.88263    -10.57004        -0.009430     -0.017077      0.020478
     -9.36876     -3.91316     -4.33168         0.003212      0.028199      0.016036
     -4.58979     -3.88709     -6.94079        -0.021627     -0.005163     -0.019883
     -2.47711     -1.95434     -4.24926         0.019657     -0.023323      0.015005
    -11.48156     -5.84226     -7.02385        -0.013937      0.008295     -0.023815
     -6.24599     -1.94922     -3.89114         0.029091     -0.010637     -0.004246
     -7.71497     -5.85142     -7.37868        -0.030791      0.008330      0.018208
    total drift:                                0.036923     -0.023942      0.022899

  FREE ENERGIE OF THE ION-ELECTRON SYSTEM (eV)
  free  energy   TOTEN  =      -104.41277963 eV

  energy  without entropy=     -104.41277963  energy(sigma->0) =     -104.41277963

 d Force = 0.1232813E-02[ 0.725E-03, 0.174E-02]  d Energy = 0.1493142E-02-0.260E-03
 d Force = 0.4793981E+00[ 0.475E+00, 0.484E+00]  d Ewald  = 0.1784684E+01-0.131E+01

 Conjugate gradient step on ions:
 trial-energy change:   -0.001493  1 .order   -0.001568   -0.002143   -0.000994
  (g-gl).g = 0.274E-03      g.g   = 0.377E-03  gl.gl    = 0.775E-03
 g(Force)  = 0.271E-03   g(Stress)= 0.106E-03 ortho     = 0.371E-04
 gamma     =   0.35317
 trial     =   5.49703
 opt step  =  10.25607  (harmonic =  10.25607) maximal distance =0.00691415
 next E    =  -104.413285   (d E  =  -0.00200)

 reached required accuracy - stopping structural energy minimisation

 total charge

# of ion       s       p       d       tot
    1        0.058   6.041   0.057   6.156
    2        0.057   6.041   0.057   6.155
    3        0.352   0.566   1.315   2.233
    4        0.344   0.545   1.278   2.167
    5        0.357   0.566   1.346   2.269
    6        0.357   0.566   1.346   2.268
    7        0.346   0.536   1.303   2.186
    8        0.346   0.536   1.303   2.185
    9        1.445   2.477   0.017   3.940
   10        1.445   2.477   0.017   3.939
   11        1.443   2.437   0.011   3.892
   12        1.443   2.437   0.011   3.891
   13        1.441   2.454   0.017   3.912
   14        1.441   2.454   0.017   3.912
   15        1.449   2.460   0.015   3.925
   16        1.449   2.460   0.015   3.924
   17        1.446   2.447   0.013   3.906
   18        1.446   2.447   0.013   3.906
tot         16.666  39.946   8.153  64.766