 vasp.5.4.4.18Apr17-6-g9f103f2a35 (build Oct 27 2022 13:04:57) complex

 executed on             LinuxIFC date 2024.07.04  08:40:27

 INCAR:
 POTCAR:    PAW_PBE Li 17Jan2003
 POTCAR:    PAW_PBE Bi 08Apr2002
 POTCAR:    PAW_PBE S 06Sep2000

 POTCAR:    PAW_PBE Li 17Jan2003
   VRHFIN =Li: s1p0

   TITEL  = PAW_PBE Li 17Jan2003
   POMASS =    7.010; ZVAL   =    1.000    mass and valenz
   ENMAX  =  140.000; ENMIN  =  100.000 eV

 POTCAR:    PAW_PBE Bi 08Apr2002
   VRHFIN =Bi:

   TITEL  = PAW_PBE Bi 08Apr2002
   POMASS =  208.980; ZVAL   =    5.000    mass and valenz
   ENMAX  =  105.037; ENMIN  =   78.777 eV

 POTCAR:    PAW_PBE S 06Sep2000
   VRHFIN =S : s2p4

   TITEL  = PAW_PBE S 06Sep2000
   POMASS =   32.066; ZVAL   =    6.000    mass and valenz
   ENMAX  =  258.689; ENMIN  =  194.016 eV

 Optimization of the real space projectors (new method)

 maximal supplied QI-value         = 18.33
 optimisation between [QCUT,QGAM] = [  8.80, 17.60] = [ 21.68, 86.71] Ry
 Optimized for a Real-space Cutoff    1.15 Angstroem

   l    n(q)    QCUT    max X(q) W(low)/X(q) W(high)/X(q)  e(spline)
   0      6     8.799    33.825    0.11E-02    0.11E-02    0.82E-07
   0      6     8.799     8.944    0.75E-03    0.85E-03    0.59E-07
   1      5     8.799     4.214    0.92E-03    0.27E-03    0.41E-07
 Optimization of the real space projectors (new method)

[...]

   l    n(q)    QCUT    max X(q) W(low)/X(q) W(high)/X(q)  e(spline)
   0      8     8.855    93.365    0.12E-03    0.22E-03    0.92E-07
   0      8     8.855    75.373    0.13E-03    0.24E-03    0.10E-06
   1      8     8.855    32.978    0.17E-02    0.62E-03    0.17E-06
   1      8     8.855    35.433    0.19E-02    0.68E-03    0.19E-06
   2      7     8.855     8.108    0.22E-03    0.34E-03    0.64E-07
 Optimization of the real space projectors (new method)

 maximal supplied QI-value         = 19.84
 optimisation between [QCUT,QGAM] = [  8.73, 17.66] = [ 21.34, 87.33] Ry
 Optimized for a Real-space Cutoff    1.22 Angstroem

   l    n(q)    QCUT    max X(q) W(low)/X(q) W(high)/X(q)  e(spline)
   0      6     8.731   187.594    0.15E-02    0.56E-03    0.90E-07
   0      6     8.731   164.243    0.15E-02    0.56E-03    0.89E-07
   1      6     8.731    67.533    0.37E-03    0.20E-02    0.11E-06
   1      6     8.731    50.729    0.36E-03    0.19E-02    0.10E-06
  PAW_PBE Li 17Jan2003                  :
  PAW_PBE Bi 08Apr2002                  :
  PAW_PBE S 06Sep2000                   :

 POSCAR: Li9 Bi1 S6
  positions in direct lattice
 exchange correlation table for  LEXCH =        8
   RHO(1)=    0.500       N(1)  =     2000
   RHO(2)=  100.500       N(2)  =     4000

 ion  position               nearest neighbor table
   1  0.995  0.515  0.309-  15 3.02
   2  0.205  0.005  0.691-  12 3.02
   3  0.000  0.000  0.000-
   4  0.314  0.795  0.309-  13 3.02
   5  0.485  0.685  0.690-  16 3.02
   6  0.515  0.315  0.310-  12 3.02
   7  0.686  0.205  0.691-  15 3.02
   8  0.795  0.995  0.309-  16 3.02
   9  0.005  0.485  0.691-  13 3.02
  10  0.500  0.500  0.000-  11 2.97  14 2.97  13 3.00  15 3.00  12 3.00  16 3.00
  11  0.272  0.272  0.546-  10 2.97
  12  0.182  0.353  0.001-  10 3.00   2 3.02   6 3.02
  13  0.352  0.818  1.000-  10 3.00   9 3.02   4 3.02
  14  0.728  0.728  0.454-  10 2.97
  15  0.648  0.182  0.000-  10 3.00   1 3.02   7 3.02
  16  0.818  0.647  0.999-  10 3.00   8 3.02   5 3.02

  LATTYP: Found a triclinic cell.
 ALAT       =     8.9173413387
 B/A-ratio  =     0.9595065414
 C/A-ratio  =     0.9596466964
 COS(alpha) =     0.0005004676
 COS(beta)  =     0.4800086697
 COS(gamma) =     0.4808918259

  Lattice vectors:

 A1 = (  -0.1385273700,  -0.1867403700,  -8.9143095500)
 A2 = (  -2.3562654300,   7.0560573100,  -4.2272257000)
 A3 = (   7.4423089000,  -0.0400520200,  -4.2238834800)

Analysis of symmetry for initial positions (statically):
 Subroutine PRICEL returns:
 Original cell was already a primitive cell.

 Routine SETGRP: Setting up the symmetry group for a
 triclinic supercell.

 Subroutine GETGRP returns: Found  2 space group operations
 (whereof  2 operations were pure point group operations)
 out of a pool of  2 trial point group operations.

The static configuration has the point symmetry S_2 .

Analysis of symmetry for dynamics (positions and initial velocities):
 Subroutine PRICEL returns:
 Original cell was already a primitive cell.

 Routine SETGRP: Setting up the symmetry group for a
 triclinic supercell.

 Subroutine GETGRP returns: Found  2 space group operations
 (whereof  2 operations were pure point group operations)
 out of a pool of  2 trial point group operations.

The dynamic configuration has the point symmetry S_2 .

 Subroutine INISYM returns: Found  2 space group operations
 (whereof  2 operations are pure point group operations),
 and found     1 'primitive' translations

 KPOINTS: pymatgen with grid density = 807 / numbe

Automatic generation of k-mesh.
Space group operators:
 irot       det(A)        alpha          n_x          n_y          n_z        tau_x        tau_y        tau_z
    1     1.000000     0.000000     1.000000     0.000000     0.000000     0.000000     0.000000     0.000000
    2    -1.000000     0.000000     1.000000     0.000000     0.000000     0.000000     0.000000     0.000000

 Subroutine IBZKPT returns following result:

 Found     14 irreducible k-points:

 Following reciprocal coordinates:
            Coordinates               Weight
  0.000000  0.000000  0.000000      1.000000
  0.333333  0.000000  0.000000      2.000000
  0.000000  0.333333  0.000000      2.000000
  0.333333  0.333333  0.000000      2.000000
 -0.333333  0.333333  0.000000      2.000000
 -0.000000  0.000000  0.333333      2.000000
  0.333333  0.000000  0.333333      2.000000
 -0.333333  0.000000  0.333333      2.000000
 -0.000000  0.333333  0.333333      2.000000
  0.333333  0.333333  0.333333      2.000000
 -0.333333  0.333333  0.333333      2.000000
 -0.000000 -0.333333  0.333333      2.000000
  0.333333 -0.333333  0.333333      2.000000
 -0.333333 -0.333333  0.333333      2.000000

 Following cartesian coordinates:
            Coordinates               Weight
  0.000000  0.000000  0.000000      1.000000
  0.044306  0.014205 -0.000986      2.000000
 -0.000300  0.046559 -0.000971      2.000000
  0.044005  0.060763 -0.001957      2.000000
 -0.044606  0.032354  0.000015      2.000000
  0.020851  0.028809  0.036466      2.000000
  0.065157  0.043014  0.035479      2.000000
 -0.023455  0.014605  0.037452      2.000000
  0.020551  0.075368  0.035495      2.000000
  0.064856  0.089573  0.034509      2.000000
 -0.023755  0.061164  0.036481      2.000000
  0.021151 -0.017750  0.037436      2.000000
  0.065457 -0.003545  0.036450      2.000000
 -0.023154 -0.031954  0.038422      2.000000

 SYSTEM =  CIS
 POSCAR =  Li9 Bi1 S6

 Startparameter for this run:
   NWRITE =      2    write-flag & timer
   PREC   = medium    normal or accurate (medium, high low for compatibility)
   ISTART =      0    job   : 0-new  1-cont  2-samecut
   ICHARG =      2    charge: 1-file 2-atom 10-const
   ISPIN  =      1    spin polarized calculation?
   LNONCOLLINEAR =      F non collinear calculations
   LSORBIT =      F    spin-orbit coupling
   INIWAV =      1    electr: 0-lowe 1-rand  2-diag
   LASPH  =      T    aspherical Exc in radial PAW
   METAGGA=      F    non-selfconsistent MetaGGA calc.

 Electronic Relaxation 1
   ENCUT  =  300.0 eV  22.05 Ry    4.70 a.u.  12.09 12.08 12.59*2*pi/ulx,y,z
   ENINI  =  300.0     initial cutoff
   ENAUG  =  335.1 eV  augmentation charge cutoff
   NELM   =     60;   NELMIN=  2; NELMDL= -5     # of ELM steps
   EDIFF  = 0.1E-03   stopping-criterion for ELM
   LREAL  =      T    real-space projection
   NLSPLINE    = F    spline interpolate recip. space projectors
   LCOMPAT=      F    compatible to vasp.4.4
   GGA_COMPAT  = T    GGA compatible to vasp.4.4-vasp.4.6
   LMAXPAW     = -100 max onsite density
   LMAXMIX     =    4 max onsite mixed and CHGCAR
   VOSKOWN=      0    Vosko Wilk Nusair interpolation
   ROPT   =   -0.00200  -0.00200  -0.00200
 Ionic relaxation
   EDIFFG = -.5E-01   stopping-criterion for IOM
   NSW    =     99    number of steps for IOM
   NBLOCK =      1;   KBLOCK =     99    inner block; outer block
   IBRION =      2    ionic relax: 0-MD 1-quasi-New 2-CG
   NFREE  =      1    steps in history (QN), initial steepest desc. (CG)
   ISIF   =      3    stress and relaxation
   IWAVPR =     11    prediction:  0-non 1-charg 2-wave 3-comb
   ISYM   =      2    0-nonsym 1-usesym 2-fastsym
   LCORR  =      T    Harris-Foulkes like correction to forces

   POTIM  = 0.1000    time-step for ionic-motion
   TEIN   =    0.0    initial temperature
   TEBEG  =    0.0;   TEEND  =   0.0 temperature during run
   SMASS  =  -3.00    Nose mass-parameter (am)
   estimated Nose-frequenzy (Omega)   =  0.10E-29 period in steps =****** mass=  -0.167E-26a.u.
   SCALEE = 1.0000    scale energy and forces
   NPACO  =    256;   APACO  = 16.0  distance and # of slots for P.C.
   PSTRESS=    0.0 pullay stress

  Mass of Ions in am
   POMASS =   7.01208.98 32.07
  Ionic Valenz
   ZVAL   =   1.00  5.00  6.00
  Atomic Wigner-Seitz radii
  virtual crystal weights
   VCA    =   1.00  1.00  1.00
   NELECT =      50.0000    total number of electrons
   NUPDOWN=      -1.0000    fix difference up-down

 DOS related values:
   EMIN   =  10.00;   EMAX   =-10.00  energy-range for DOS
   EFERMI =   0.00
   ISMEAR =     0;   SIGMA  =   0.05  broadening in eV -4-tet -1-fermi 0-gaus

 Electronic relaxation 2 (details)
   IALGO  =     38    algorithm
   LDIAG  =      T    sub-space diagonalisation (order eigenvalues)
   LSUBROT=      F    optimize rotation matrix (better conditioning)
   TURBO    =      0    0=normal 1=particle mesh
   IRESTART =      0    0=no restart 2=restart with 2 vectors
   NREBOOT  =      0    no. of reboots
   NMIN     =      0    reboot dimension
   EREF     =   0.00    reference energy to select bands
   IMIX   =      4    mixing-type and parameters
     AMIX     =   0.40;   BMIX     =  1.00
     AMIX_MAG =   1.60;   BMIX_MAG =  1.00
     AMIN     =   0.10
     WC   =   100.;   INIMIX=   1;  MIXPRE=   1;  MAXMIX= -45

 Intra band minimization:
   WEIMIN = 0.0010     energy-eigenvalue tresh-hold
   EBREAK =  0.60E-06  absolut break condition
   DEPER  =   0.30     relativ break condition

   TIME   =   0.40     timestep for ELM

  volume/ion in A,a.u.               =      29.95       202.10
  Fermi-wavevector in a.u.,A,eV,Ry     =   0.770732  1.456472  8.082234  0.594027
  Thomas-Fermi vector in A             =   1.871999

 Write flags
   LWAVE        =      F    write WAVECAR
   LDOWNSAMPLE  =      F    k-point downsampling of WAVECAR
   LCHARG       =      F    write CHGCAR
   LVTOT        =      F    write LOCPOT, total local potential
   LVHAR        =      F    write LOCPOT, Hartree potential only
   LELF         =      F    write electronic localiz. function (ELF)
   LORBIT       =     10    0 simple, 1 ext, 2 COOP (PROOUT), +10 PAW based schemes

 Dipole corrections
   LMONO  =      F    monopole corrections only (constant potential shift)
[...]
  (g-gl).g = 0.927E+00      g.g   = 0.927E+00  gl.gl    = 0.000E+00
 g(Force)  = 0.981E-01   g(Stress)= 0.828E+00 ortho     = 0.000E+00
 gamma     =   0.00000
 trial     =   1.00000
 opt step  =   4.00000  (harmonic =  19.09608) maximal distance =0.03879755
 next E    =   -61.257065   (d E  =  -8.84710)

[...]

 d Force = 0.9954632E+00[ 0.901E+00, 0.109E+01]  d Energy = 0.9504702E+00 0.450E-01
 d Force = 0.2236775E+02[ 0.205E+02, 0.243E+02]  d Ewald  = 0.4102773E+02-0.187E+02

 Conjugate gradient step on ions:
 trial-energy change:   -0.950470  1 .order   -0.950102   -1.055440   -0.844764
  (g-gl).g = 0.379E+00      g.g   = 0.377E+00  gl.gl    = 0.927E+00
 g(Force)  = 0.374E+00   g(Stress)= 0.322E-02 ortho     =-0.111E-02
 gamma     =   0.40850
 trial     =   2.80000
 opt step  =  11.20000  (harmonic =  14.02738) maximal distance =0.20644805
 next E    =   -60.791973   (d E  =  -2.64376)

[...]

 E-fermi :   3.4930     XC(G=0):  -8.6101     alpha+bet :-10.7028

[...]

 d Force = 0.1154389E+00[ 0.661E-01, 0.165E+00]  d Energy = 0.2478372E+00-0.132E+00
 d Force = 0.5033153E+01[ 0.455E+01, 0.552E+01]  d Ewald  =-0.1848962E+02 0.235E+02

 Conjugate gradient step on ions:
 trial-energy change:   -0.247837  1 .order   -0.251624   -0.409901   -0.093347
  (g-gl).g =-0.971E-02      g.g   = 0.918E-01  gl.gl    = 0.377E+00
 g(Force)  = 0.384E-01   g(Stress)= 0.534E-01 ortho     = 0.119E-01
 gamma     =  -0.02572
 trial     =   4.48000
 opt step  =   5.94005  (harmonic =   5.80109) maximal distance =0.03687495
 next E    =   -60.707000   (d E  =  -0.26292)

[...]

 Conjugate gradient step on ions:
 trial-energy change:   -0.054058  1 .order   -0.054148   -0.056196   -0.052101
  (g-gl).g = 0.108E-01      g.g   = 0.117E-01  gl.gl    = 0.918E-01
 g(Force)  = 0.106E-01   g(Stress)= 0.118E-02 ortho     = 0.315E-03
 gamma     =   0.11738
 trial     =   4.77201
 opt step  =  19.08804  (harmonic =  65.49030) maximal distance =0.07209710
 next E    =   -61.093174   (d E  =  -0.38561)

[...]

 d Force = 0.1184179E+00[ 0.884E-02, 0.228E+00]  d Energy = 0.1233525E+00-0.493E-02
 d Force =-0.4666710E+01[-0.555E+01,-0.378E+01]  d Ewald  =-0.5423965E+00-0.412E+01

[...]

 d Force = 0.2895554E-01[-0.100E+00, 0.158E+00]  d Energy =-0.1269154E-01 0.416E-01
 d Force =-0.8188605E+01[-0.950E+01,-0.688E+01]  d Ewald  =-0.2824500E+02 0.201E+02

[...]

 d Force = 0.1123141E-01[-0.253E-01, 0.478E-01]  d Energy = 0.4687710E-01-0.356E-01
 d Force = 0.4558120E+01[ 0.420E+01, 0.491E+01]  d Ewald  = 0.1530465E+02-0.107E+02

[...]

 d Force = 0.2027736E+00[ 0.134E+00, 0.272E+00]  d Energy = 0.1837961E+00 0.190E-01
 d Force = 0.1140208E+01[-0.369E+00, 0.265E+01]  d Ewald  =-0.5705070E+01 0.685E+01

[...]

 d Force =-0.1585478E-01[-0.301E+00, 0.269E+00]  d Energy =-0.8262146E-01 0.668E-01
 d Force =-0.6160085E+01[-0.114E+02,-0.876E+00]  d Ewald  =-0.2066515E+02 0.145E+02

[...]

 d Force = 0.2441473E-01[ 0.634E-02, 0.425E-01]  d Energy = 0.3606151E-01-0.116E-01
 d Force =-0.1914425E+00[-0.483E+00, 0.101E+00]  d Ewald  = 0.9503463E+01-0.969E+01

[...]

 d Force =-0.2009512E-01[-0.307E-01,-0.947E-02]  d Energy = 0.1579548E-01-0.359E-01
 d Force =-0.1186824E+01[-0.121E+01,-0.117E+01]  d Ewald  = 0.2411572E+01-0.360E+01

[...]

 d Force =-0.1612389E-01[-0.207E+00, 0.175E+00]  d Energy =-0.5283452E-01 0.367E-01
 d Force = 0.9139460E+01[ 0.953E+01, 0.875E+01]  d Ewald  = 0.1852955E+02-0.939E+01

[...]

 E-fermi :   2.1351     XC(G=0):  -8.2606     alpha+bet : -9.9172

[...]

 d Force = 0.2584197E-01[-0.908E-01, 0.142E+00]  d Energy = 0.7543760E-01-0.496E-01
 d Force =-0.6972056E+01[-0.683E+01,-0.712E+01]  d Ewald  =-0.1357363E+02 0.660E+01

[...]

 d Force =-0.6012740E-03[-0.666E-03,-0.536E-03]  d Energy = 0.7332688E-04-0.675E-03
 d Force =-0.2403138E-01[-0.243E-01,-0.237E-01]  d Ewald  = 0.4906327E+00-0.515E+00

[...]

 d Force = 0.3740255E-01[ 0.229E-01, 0.519E-01]  d Energy = 0.2989860E-01 0.750E-02
 d Force =-0.1312120E+00[-0.335E+00, 0.731E-01]  d Ewald  = 0.7025411E+01-0.716E+01

[...]

 d Force = 0.6169695E-04[-0.247E-01, 0.248E-01]  d Energy =-0.3573169E-02 0.363E-02
 d Force =-0.4323959E+00[-0.578E+00,-0.287E+00]  d Ewald  =-0.4632308E+00 0.308E-01

[...]

 d Force = 0.3391871E-01[ 0.167E-01, 0.511E-01]  d Energy = 0.3672981E-01-0.281E-02
 d Force =-0.1415536E+00[-0.203E+00,-0.798E-01]  d Ewald  =-0.1159361E+02 0.115E+02

[...]

 d Force = 0.9418178E-02[-0.130E+00, 0.149E+00]  d Energy =-0.5035258E-01 0.598E-01
 d Force =-0.3358839E+01[-0.384E+01,-0.287E+01]  d Ewald  = 0.2554359E+01-0.591E+01

[...]

 d Force = 0.2215710E-01[-0.424E-01, 0.867E-01]  d Energy = 0.8028502E-01-0.581E-01
 d Force = 0.2253234E+01[ 0.205E+01, 0.246E+01]  d Ewald  =-0.1691290E+01 0.394E+01

[...]

 d Force = 0.6078021E-02[ 0.475E-02, 0.740E-02]  d Energy = 0.6109623E-02-0.316E-04
 d Force = 0.3331187E-02[-0.117E-01, 0.184E-01]  d Ewald  = 0.2519390E+01-0.252E+01

 Conjugate gradient step on ions:
 trial-energy change:   -0.006110  1 .order   -0.006493   -0.008582   -0.004404
  (g-gl).g = 0.511E-03      g.g   = 0.524E-03  gl.gl    = 0.119E-02
 g(Force)  = 0.415E-03   g(Stress)= 0.109E-03 ortho     = 0.456E-04
 gamma     =   0.42864
 trial     =  15.80397
 opt step  =  32.46168  (harmonic =  32.46168) maximal distance =0.03377425
 next E    =   -64.063337   (d E  =  -0.00881)

[...]

 d Force = 0.2089872E-02[ 0.163E-02, 0.255E-02]  d Energy = 0.3330952E-02-0.124E-02
 d Force = 0.5858158E-01[ 0.535E-01, 0.636E-01]  d Ewald  =-0.1199142E+01 0.126E+01

[...]

 d Force = 0.9811545E-03[-0.135E-02, 0.331E-02]  d Energy = 0.2061955E-02-0.108E-02
 d Force = 0.8666717E-01[ 0.660E-01, 0.107E+00]  d Ewald  =-0.2463544E+01 0.255E+01

[...]

 d Force = 0.1830316E-03[ 0.594E-04, 0.307E-03]  d Energy = 0.2912914E-03-0.108E-03
 d Force =-0.1702794E-01[-0.181E-01,-0.160E-01]  d Ewald  = 0.5607888E+00-0.578E+00

[...]

 d Force = 0.2652115E-02[ 0.210E-02, 0.320E-02]  d Energy = 0.2927557E-02-0.275E-03
 d Force = 0.1810424E+00[ 0.173E+00, 0.189E+00]  d Ewald  = 0.9515589E+00-0.771E+00

 Conjugate gradient step on ions:
 trial-energy change:   -0.002928  1 .order   -0.003025   -0.003728   -0.002323
  (g-gl).g = 0.328E-03      g.g   = 0.455E-03  gl.gl    = 0.713E-03
 g(Force)  = 0.372E-03   g(Stress)= 0.825E-04 ortho     =-0.694E-04
 gamma     =   0.45974
 trial     =   8.82098
 opt step  =  23.40694  (harmonic =  23.40694) maximal distance =0.02713195
 next E    =   -64.072670   (d E  =  -0.00495)

[...]

 eigenvalue-minimisations  :  1568
 total energy-change (2. order) : 0.2706248E-03  (-0.6610332E-04)
 number of electron      50.0000042 magnetization
 augmentation part       -6.4159218 magnetization

 Broyden mixing:
  rms(total) = 0.73808E-02    rms(broyden)= 0.73808E-02
  rms(prec ) = 0.82360E-02
  weight for this iteration     100.00

 eigenvalues of (default mixing * dielectric matrix)
  average eigenvalue GAMMA=   1.2754
  0.8485  1.4888  1.4888

[...]

--------------------------------------- Iteration     82(   5)  ---------------------------------------

 eigenvalue-minimisations  :  1106
 total energy-change (2. order) :-0.2415987E-05  (-0.1294539E-04)
 number of electron      50.0000042 magnetization
 augmentation part       -6.4159218 magnetization

 Free energy of the ion-electron system (eV)
  alpha Z        PSCENC =        34.38025275
  Ewald energy   TEWEN  =     -1637.89193842
  -Hartree energ DENC   =      -337.10503768
  -exchange      EXHF   =         0.00000000
  -V(xc)+E(xc)   XCENC  =       -68.91172421
  PAW double counting   =      3573.39127615    -3388.58996196
  entropy T*S    EENTRO =        -0.00000000
  eigenvalues    EBANDS =       -98.75090818
  atomic energy  EATOM  =      1859.40581359
  Solvation  Ediel_sol  =         0.00000000
  free energy    TOTEN  =       -64.07222797 eV

  energy without entropy =      -64.07222797  energy(sigma->0) =      -64.07222797

 average (electrostatic) potential at core
  the test charge radii are     0.9748  1.4024  0.9698
  (the norm of the test charge is              1.0000)
       1 -26.5343       2 -26.6053       3 -27.2443       4 -26.5353       5 -27.2237
       6 -27.2237       7 -26.5353       8 -26.6053       9 -26.5343      10 -64.6024
      11 -87.4792      12 -87.5212      13 -87.4252      14 -87.4792      15 -87.4252
      16 -87.5212

 E-fermi :   2.4892     XC(G=0):  -8.6085     alpha+bet :-10.7023

[...]

 k-point    14 :      -0.3333   -0.3333    0.3333
  band No.  band energies     occupation
      1      -9.8788      2.00000
      2      -8.8424      2.00000
      3      -8.7770      2.00000
      4      -8.6950      2.00000
      5      -8.6859      2.00000
      6      -8.4004      2.00000
      7      -6.7038      2.00000
      8      -1.1187      2.00000
      9      -1.0297      2.00000
     10      -0.9434      2.00000
     11      -0.4791      2.00000
     12      -0.0078      2.00000
     13       0.0360      2.00000
     14       0.1545      2.00000
     15       0.5024      2.00000
     16       0.5600      2.00000
     17       0.8591      2.00000
     18       1.0292      2.00000
     19       1.1501      2.00000
     20       1.3010      2.00000
     21       1.4751      2.00000
     22       1.5533      2.00000
     23       1.6605      2.00000
     24       1.7611      2.00000
     25       2.1706      2.00000
     26       5.1741      0.00000
     27       5.5789      0.00000
     28       5.6759      0.00000
     29       6.8769      0.00000
     30       7.2559      0.00000
     31       7.4742      0.00000
     32       7.7819      0.00000
     33       8.1605      0.00000
     34       8.3226      0.00000
     35       8.6281      0.00000
     36       8.8639      0.00000
     37       8.9755      0.00000
     38       9.3808      0.00000
     39       9.5490      0.00000
     40       9.7338      0.00000
     41       9.8331      0.00000
     42      10.0270      0.00000

 soft charge-density along one line, spin component           1
         0         1         2         3         4         5         6         7         8         9
 total charge-density along one line

------------------------ aborting loop because EDIFF is reached ----------------------------------------

[...]

  FORCE on cell =-STRESS in cart. coord.  units (eV):
  Direction    XX          YY          ZZ          XY          YZ          ZX
  Alpha Z    34.38025    34.38025    34.38025
  Ewald    -555.32833  -543.66552  -538.90099     2.55370     3.68250     4.12110
  Hartree   115.72167   110.16974   111.18812     4.76415     1.76923     1.59072
  E(xc)    -169.19587  -169.29064  -169.28241     0.03028    -0.00605    -0.01271
  Local    -375.00376  -379.36166  -384.63538    -7.88509    -5.50931    -5.81950
  n-local   522.03169   524.34080   524.48092    -0.65552     0.06359     0.28004
  augment  -129.44392  -129.36626  -129.26863    -0.04482     0.00894    -0.01662
  Kinetic   556.86913   553.11334   552.17249     1.23935     0.20725    -0.07423
  Fock        0.00000     0.00000     0.00000     0.00000     0.00000     0.00000
  Total       0.03086     0.32005     0.13437     0.00205     0.21616     0.06880
  in kB       0.18226     1.89034     0.79363     0.01209     1.27671     0.40638

 VOLUME and BASIS-vectors are now :
  energy-cutoff  :      300.00
  volume of cell :      271.26
      direct lattice vectors                 reciprocal lattice vectors
     6.773867267  0.184569991 -3.476067460     0.147409593  0.050902816  0.002280781
    -1.940979895  5.777296608 -3.490740488    -0.002950413  0.174215376  0.003500859
    -0.059445164 -0.141812626  7.007008626     0.071657763  0.112042432  0.145589765

  length of vectors
     7.615929938  7.023519645  7.008695630     0.155967582  0.174275524  0.197192092

 FORCES acting on ions
    electron-ion (+dipol)            ewald-force                    non-local-force                 convergence-correction
   0.109E+01 -.326E+01 0.150E+01   -.115E+01 0.318E+01 -.134E+01   0.548E-01 0.721E-01 -.167E+00   -.546E-04 -.164E-03 -.860E-05
   -.179E+01 0.251E+01 0.241E+01   0.162E+01 -.248E+01 -.236E+01   0.137E+00 -.473E-01 -.547E-01   -.173E-03 -.189E-04 0.118E-03
   -.495E-07 0.583E-07 -.755E-08   0.479E-05 -.565E-05 0.616E-06   0.108E-22 0.397E-22 -.529E-22   -.346E-09 -.177E-09 -.229E-09
   -.312E+00 0.876E+00 -.342E+01   0.301E+00 -.865E+00 0.328E+01   0.216E-01 -.626E-02 0.103E+00   -.106E-03 -.808E-05 0.108E-05
   0.740E+01 0.563E+00 -.943E+00   -.656E+01 -.474E+00 0.846E+00   -.814E+00 -.648E-01 0.131E+00   0.128E-03 0.651E-04 -.180E-03
   -.740E+01 -.563E+00 0.943E+00   0.656E+01 0.474E+00 -.846E+00   0.814E+00 0.648E-01 -.131E+00   -.128E-03 -.651E-04 0.180E-03
   0.312E+00 -.876E+00 0.342E+01   -.301E+00 0.865E+00 -.328E+01   -.216E-01 0.626E-02 -.103E+00   0.106E-03 0.808E-05 -.108E-05
   0.179E+01 -.251E+01 -.241E+01   -.162E+01 0.248E+01 0.236E+01   -.137E+00 0.473E-01 0.547E-01   0.173E-03 0.189E-04 -.118E-03
   -.109E+01 0.326E+01 -.150E+01   0.115E+01 -.318E+01 0.134E+01   -.548E-01 -.721E-01 0.167E+00   0.546E-04 0.164E-03 0.860E-05
   0.161E-06 -.628E-07 -.385E-08   -.155E-04 0.607E-05 0.192E-06   0.933E-21 0.410E-21 0.000E+00   0.196E-09 -.432E-08 0.281E-08
   -.568E+01 0.177E+02 -.218E+01   0.557E+01 -.187E+02 0.170E+01   0.115E+00 0.961E+00 0.466E+00   0.172E-03 -.530E-03 -.966E-03
   0.400E+01 -.781E+01 -.139E+02   -.438E+01 0.771E+01 0.148E+02   0.373E+00 0.117E+00 -.895E+00   -.146E-02 -.914E-03 0.580E-03
   0.444E+00 -.102E+02 0.149E+02   -.103E+01 0.109E+02 -.154E+02   0.581E+00 -.756E+00 0.584E+00   -.165E-02 0.733E-03 0.572E-03
   0.568E+01 -.177E+02 0.218E+01   -.557E+01 0.187E+02 -.170E+01   -.115E+00 -.961E+00 -.466E+00   -.172E-03 0.530E-03 0.966E-03
   -.444E+00 0.102E+02 -.149E+02   0.103E+01 -.109E+02 0.154E+02   -.581E+00 0.756E+00 -.584E+00   0.165E-02 -.733E-03 -.572E-03
   -.400E+01 0.781E+01 0.139E+02   0.438E+01 -.771E+01 -.148E+02   -.373E+00 -.117E+00 0.895E+00   0.146E-02 0.914E-03 -.580E-03
   0.544E-06 -.186E-04 0.484E-04   0.888E-14 -.133E-13 0.178E-14   -.555E-16 0.236E-15 0.000E+00   -.348E-08 -.556E-08 -.957E-09

 POSITION                                       TOTAL-FORCE (eV/Angst)
      0.10867      2.39504      1.13544        -0.007826     -0.003518     -0.004339
      0.94026      0.05882      4.50816        -0.039124     -0.017560      0.000303
     -0.00000      0.00000     -0.00000         0.000000     -0.000000      0.000000
     -0.41681      4.07346     -2.10928         0.010886      0.004892     -0.036302
      1.99768      4.76536     -0.06221         0.026364      0.024102      0.034283
      2.77576      1.05469      0.10241        -0.026364     -0.024102     -0.034283
      5.19025      1.74660      2.14949        -0.010886     -0.004892      0.036302
      5.77416     -0.01607     -0.97722         0.039124      0.017560     -0.000303
     -2.10910      3.24044      2.38082         0.007826      0.003518      0.004339
      2.41644      2.98093     -3.48340         0.000000     -0.000000      0.000000
      1.37412      0.55267      2.19049         0.003350     -0.040914     -0.018201
      0.89975      2.31286     -1.16077        -0.012295      0.016420      0.040095
      0.19394      4.47214     -4.47563        -0.003140      0.013042      0.033441
      3.39932      5.26738     -2.15029        -0.003350      0.040914      0.018201
      4.63895      1.48972     -2.49118         0.003140     -0.013042     -0.033441
      3.87369      3.50720      1.20097         0.012295     -0.016420     -0.040095
    total drift:                                0.000001     -0.000019      0.000048

  FREE ENERGIE OF THE ION-ELECTRON SYSTEM (eV)
  free  energy   TOTEN  =       -64.07222797 eV

  energy  without entropy=      -64.07222797  energy(sigma->0) =      -64.07222797

 d Force = 0.1681160E-02[-0.113E-03, 0.348E-02]  d Energy = 0.1576173E-02 0.105E-03
 d Force = 0.2650889E+00[ 0.244E+00, 0.286E+00]  d Ewald  = 0.1548068E+01-0.128E+01

 reached required accuracy - stopping structural energy minimisation

 total charge

# of ion       s       p       d       tot
    1        0.099   0.183   0.000   0.283
    2        0.095   0.174   0.000   0.269
    3        0.080   0.146   0.000   0.227
    4        0.099   0.182   0.000   0.281
    5        0.060   0.104   0.000   0.165
    6        0.060   0.104   0.000   0.165
    7        0.099   0.182   0.000   0.281
    8        0.095   0.174   0.000   0.269
    9        0.099   0.183   0.000   0.283
   10        1.851   1.386   0.186   3.422
   11        1.317   2.447   0.000   3.764
   12        1.317   2.441   0.000   3.758
   13        1.318   2.438   0.000   3.755
   14        1.317   2.447   0.000   3.764
   15        1.318   2.438   0.000   3.755
   16        1.317   2.441   0.000   3.758
tot         10.540  17.471   0.186  28.196