 vasp.5.4.4.18Apr17-6-g9f103f2a35 (build Oct 27 2022 13:04:57) complex

 executed on             LinuxIFC date 2024.06.29  13:27:27

 INCAR:
 POTCAR:    PAW_PBE Na 08Apr2002
 POTCAR:    PAW_PBE Al 04Jan2001
 POTCAR:    PAW_PBE Se 06Sep2000

 POTCAR:    PAW_PBE Na 08Apr2002
   VRHFIN =Na: s1p0

   TITEL  = PAW_PBE Na 08Apr2002
   POMASS =   22.990; ZVAL   =    1.000    mass and valenz
   ENMAX  =  101.968; ENMIN  =   76.476 eV

 POTCAR:    PAW_PBE Al 04Jan2001
   VRHFIN =Al: s2p1

   TITEL  = PAW_PBE Al 04Jan2001
   POMASS =   26.981; ZVAL   =    3.000    mass and valenz
   ENMAX  =  240.300; ENMIN  =  180.225 eV

 POTCAR:    PAW_PBE Se 06Sep2000
   VRHFIN =Se: s2p4

   TITEL  = PAW_PBE Se 06Sep2000
   POMASS =   78.960; ZVAL   =    6.000    mass and valenz
   ENMAX  =  211.555; ENMIN  =  158.666 eV

 Optimization of the real space projectors (new method)

 maximal supplied QI-value         = 17.01
 optimisation between [QCUT,QGAM] = [  8.84, 17.69] = [ 21.90, 87.61] Ry
 Optimized for a Real-space Cutoff    1.22 Angstroem

   l    n(q)    QCUT    max X(q) W(low)/X(q) W(high)/X(q)  e(spline)
   0      6     8.844    45.123    0.62E-03    0.70E-03    0.80E-07
   0      6     8.844    12.364    0.51E-03    0.48E-03    0.55E-07
   1      6     8.844     8.302    0.36E-03    0.27E-03    0.23E-07
 Optimization of the real space projectors (new method)

[...]

   l    n(q)    QCUT    max X(q) W(low)/X(q) W(high)/X(q)  e(spline)
   0      6     8.731   176.870    0.15E-02    0.11E-03    0.68E-07
   0      6     8.731   105.762    0.15E-02    0.11E-03    0.66E-07
   1      5     8.731    55.370    0.19E-02    0.30E-02    0.57E-07
   1      5     8.731    20.208    0.17E-02    0.27E-02    0.55E-07
 Optimization of the real space projectors (new method)

 maximal supplied QI-value         = 17.95
 optimisation between [QCUT,QGAM] = [  8.80, 17.59] = [ 21.67, 86.68] Ry
 Optimized for a Real-space Cutoff    1.19 Angstroem

   l    n(q)    QCUT    max X(q) W(low)/X(q) W(high)/X(q)  e(spline)
   0      6     8.797   133.320    0.14E-02    0.11E-02    0.95E-07
   0      6     8.797   111.601    0.15E-02    0.12E-02    0.10E-06
   1      6     8.797    47.222    0.19E-02    0.96E-03    0.11E-06
   1      6     8.797    33.775    0.19E-02    0.99E-03    0.11E-06
   2      5     8.797     3.720    0.16E-02    0.14E-02    0.40E-07
  PAW_PBE Na 08Apr2002                  :
  PAW_PBE Al 04Jan2001                  :
  PAW_PBE Se 06Sep2000                  :

 POSCAR: Na4 Al4 Se8
  positions in direct lattice
 exchange correlation table for  LEXCH =        8
   RHO(1)=    0.500       N(1)  =     2000
   RHO(2)=  100.500       N(2)  =     4000

 ion  position               nearest neighbor table
   1  0.118  0.917  0.378-  12 2.43   9 2.43  15 2.44  16 2.45   6 3.74   2 3.81   2 3.81   4 3.82
                             4 3.82
   2  0.618  0.083  0.622-  11 2.43  10 2.43  16 2.44  15 2.45   5 3.74   1 3.81   1 3.81   3 3.82
                             3 3.82
   3  0.618  0.583  0.878-  10 2.43  11 2.43  13 2.44  14 2.45   8 3.74   4 3.81   4 3.81   2 3.82
                             2 3.82
   4  0.118  0.417  0.122-   9 2.43  12 2.43  14 2.44  13 2.45   7 3.74   3 3.81   3 3.81   1 3.82
                             1 3.82
   5  0.621  0.574  0.374-  10 2.25  14 2.26  15 2.26   9 2.26   2 3.74
   6  0.121  0.426  0.626-   9 2.25  13 2.26  16 2.26  10 2.26   1 3.74
   7  0.121  0.926  0.874-  12 2.25  16 2.26  13 2.26  11 2.26   4 3.74
   8  0.621  0.074  0.126-  11 2.25  15 2.26  14 2.26  12 2.26   3 3.74
   9  0.985  0.564  0.386-   6 2.25   5 2.26   4 2.43   1 2.43
  10  0.485  0.436  0.614-   5 2.25   6 2.26   3 2.43   2 2.43
  11  0.485  0.936  0.886-   8 2.25   7 2.26   2 2.43   3 2.43
  12  0.985  0.064  0.114-   7 2.25   8 2.26   1 2.43   4 2.43
  13  0.010  0.595  0.861-   6 2.26   7 2.26   3 2.44   4 2.45
  14  0.510  0.405  0.139-   5 2.26   8 2.26   4 2.44   3 2.45
  15  0.510  0.905  0.361-   8 2.26   5 2.26   1 2.44   2 2.45
  16  0.010  0.095  0.639-   7 2.26   6 2.26   2 2.44   1 2.45

  LATTYP: Found a simple orthorhombic cell.
 ALAT       =     6.2046547700
 B/A-ratio  =     1.0468935019
 C/A-ratio  =     1.2661476506

  Lattice vectors:

 A1 = (   6.2046547700,   0.0000000000,   0.0000000000)
 A2 = (   0.0000000000,   6.4956127600,   0.0000000000)
 A3 = (   0.0000000000,   0.0000000000,   7.8560090600)

Analysis of symmetry for initial positions (statically):
 Subroutine PRICEL returns:
 Original cell was already a primitive cell.

 Routine SETGRP: Setting up the symmetry group for a
 simple orthorhombic supercell.

 Subroutine GETGRP returns: Found  4 space group operations
 (whereof  1 operations were pure point group operations)
 out of a pool of  8 trial point group operations.

The static configuration has the point symmetry C_1 .
 The point group associated with its full space group is C_2v.

Analysis of symmetry for dynamics (positions and initial velocities):
 Subroutine PRICEL returns:
 Original cell was already a primitive cell.

 Routine SETGRP: Setting up the symmetry group for a
 simple orthorhombic supercell.

 Subroutine GETGRP returns: Found  4 space group operations
 (whereof  1 operations were pure point group operations)
 out of a pool of  8 trial point group operations.

The dynamic configuration has the point symmetry C_1 .
 The point group associated with its full space group is C_2v.

 Subroutine INISYM returns: Found  4 space group operations
 (whereof  1 operations are pure point group operations),
 and found     1 'primitive' translations

 KPOINTS: pymatgen with grid density = 807 / numbe

Automatic generation of k-mesh.
Space group operators:
 irot       det(A)        alpha          n_x          n_y          n_z        tau_x        tau_y        tau_z
    1     1.000000     0.000000     1.000000     0.000000     0.000000     0.000000     0.000000     0.000000
    2    -1.000000   180.000000     0.000000     0.000000     1.000000     0.000000     0.500000     0.500000
    3    -1.000000   179.999999     0.000000     1.000000     0.000000     0.500000     0.500000     0.500000
    4     1.000000   180.000000     1.000000     0.000000     0.000000     0.500000     0.000000     0.000000

 Subroutine IBZKPT returns following result:

 Found      8 irreducible k-points:

 Following reciprocal coordinates:
            Coordinates               Weight
  0.000000  0.000000  0.000000      1.000000
  0.333333  0.000000  0.000000      2.000000
  0.000000  0.333333  0.000000      2.000000
  0.333333  0.333333  0.000000      4.000000
  0.000000  0.000000  0.333333      2.000000
  0.333333  0.000000  0.333333      4.000000
  0.000000  0.333333  0.333333      4.000000
  0.333333  0.333333  0.333333      8.000000

 Following cartesian coordinates:
            Coordinates               Weight
  0.000000  0.000000  0.000000      1.000000
  0.053723  0.000000  0.000000      2.000000
  0.000000  0.051317  0.000000      2.000000
  0.053723  0.051317  0.000000      4.000000
  0.000000  0.000000  0.042430      2.000000
  0.053723  0.000000  0.042430      4.000000
  0.000000  0.051317  0.042430      4.000000
  0.053723  0.051317  0.042430      8.000000

 SYSTEM =  CIS
 POSCAR =  Na4 Al4 Se8

 Startparameter for this run:
   NWRITE =      2    write-flag & timer
   PREC   = medium    normal or accurate (medium, high low for compatibility)
   ISTART =      0    job   : 0-new  1-cont  2-samecut
   ICHARG =      2    charge: 1-file 2-atom 10-const
   ISPIN  =      1    spin polarized calculation?
   LNONCOLLINEAR =      F non collinear calculations
   LSORBIT =      F    spin-orbit coupling
   INIWAV =      1    electr: 0-lowe 1-rand  2-diag
   LASPH  =      T    aspherical Exc in radial PAW
   METAGGA=      F    non-selfconsistent MetaGGA calc.

 Electronic Relaxation 1
   ENCUT  =  300.0 eV  22.05 Ry    4.70 a.u.   8.76  9.17 11.09*2*pi/ulx,y,z
   ENINI  =  300.0     initial cutoff
   ENAUG  =  446.8 eV  augmentation charge cutoff
   NELM   =     60;   NELMIN=  2; NELMDL= -5     # of ELM steps
   EDIFF  = 0.1E-03   stopping-criterion for ELM
   LREAL  =      T    real-space projection
   NLSPLINE    = F    spline interpolate recip. space projectors
   LCOMPAT=      F    compatible to vasp.4.4
   GGA_COMPAT  = T    GGA compatible to vasp.4.4-vasp.4.6
   LMAXPAW     = -100 max onsite density
   LMAXMIX     =    4 max onsite mixed and CHGCAR
   VOSKOWN=      0    Vosko Wilk Nusair interpolation
   ROPT   =   -0.00200  -0.00200  -0.00200
 Ionic relaxation
   EDIFFG = -.5E-01   stopping-criterion for IOM
   NSW    =     99    number of steps for IOM
   NBLOCK =      1;   KBLOCK =     99    inner block; outer block
   IBRION =      2    ionic relax: 0-MD 1-quasi-New 2-CG
   NFREE  =      1    steps in history (QN), initial steepest desc. (CG)
   ISIF   =      3    stress and relaxation
   IWAVPR =     11    prediction:  0-non 1-charg 2-wave 3-comb
   ISYM   =      2    0-nonsym 1-usesym 2-fastsym
   LCORR  =      T    Harris-Foulkes like correction to forces

   POTIM  = 0.1000    time-step for ionic-motion
   TEIN   =    0.0    initial temperature
   TEBEG  =    0.0;   TEEND  =   0.0 temperature during run
   SMASS  =  -3.00    Nose mass-parameter (am)
   estimated Nose-frequenzy (Omega)   =  0.10E-29 period in steps =****** mass=  -0.880E-27a.u.
   SCALEE = 1.0000    scale energy and forces
   NPACO  =    256;   APACO  = 16.0  distance and # of slots for P.C.
   PSTRESS=    0.0 pullay stress

  Mass of Ions in am
   POMASS =  22.99 26.98 78.96
  Ionic Valenz
   ZVAL   =   1.00  3.00  6.00
  Atomic Wigner-Seitz radii
  virtual crystal weights
   VCA    =   1.00  1.00  1.00
   NELECT =      64.0000    total number of electrons
   NUPDOWN=      -1.0000    fix difference up-down

 DOS related values:
   EMIN   =  10.00;   EMAX   =-10.00  energy-range for DOS
   EFERMI =   0.00
   ISMEAR =     0;   SIGMA  =   0.05  broadening in eV -4-tet -1-fermi 0-gaus

 Electronic relaxation 2 (details)
   IALGO  =     38    algorithm
   LDIAG  =      T    sub-space diagonalisation (order eigenvalues)
   LSUBROT=      F    optimize rotation matrix (better conditioning)
   TURBO    =      0    0=normal 1=particle mesh
   IRESTART =      0    0=no restart 2=restart with 2 vectors
   NREBOOT  =      0    no. of reboots
   NMIN     =      0    reboot dimension
   EREF     =   0.00    reference energy to select bands
   IMIX   =      4    mixing-type and parameters
     AMIX     =   0.40;   BMIX     =  1.00
     AMIX_MAG =   1.60;   BMIX_MAG =  1.00
     AMIN     =   0.10
     WC   =   100.;   INIMIX=   1;  MIXPRE=   1;  MAXMIX= -45

 Intra band minimization:
   WEIMIN = 0.0010     energy-eigenvalue tresh-hold
   EBREAK =  0.60E-06  absolut break condition
   DEPER  =   0.30     relativ break condition

   TIME   =   0.40     timestep for ELM

  volume/ion in A,a.u.               =      19.79       133.54
  Fermi-wavevector in a.u.,A,eV,Ry     =   0.960775  1.815601 12.559376  0.923088
  Thomas-Fermi vector in A             =   2.090089

 Write flags
   LWAVE        =      F    write WAVECAR
   LDOWNSAMPLE  =      F    k-point downsampling of WAVECAR
   LCHARG       =      F    write CHGCAR
[...]
   0.190E+02 -.158E+02 0.271E+02   -.198E+02 0.163E+02 -.281E+02   0.999E+00 -.630E+00 0.113E+01   -.121E-02 0.983E-03 -.166E-02
   0.190E+02 -.158E+02 -.271E+02   -.198E+02 0.163E+02 0.281E+02   0.999E+00 -.630E+00 -.113E+01   -.121E-02 0.983E-03 0.166E-02
   0.190E+02 0.158E+02 0.271E+02   -.198E+02 -.163E+02 -.281E+02   0.999E+00 0.630E+00 0.113E+01   -.121E-02 -.983E-03 -.166E-02
   0.343E+00 0.315E-12 0.354E-05   0.107E-13 -.107E-13 0.711E-14   -.361E+00 0.000E+00 0.000E+00   -.603E-03 0.105E-13 -.211E-13

 POSITION                                       TOTAL-FORCE (eV/Angst)
      0.73097      5.95413      2.96726        -0.128792      0.235163      0.174411
      3.83330      0.54148      4.88875        -0.128792     -0.235163     -0.174411
      3.83330      3.78928      6.89526        -0.128792     -0.235163      0.174411
      0.73097      2.70633      0.96075        -0.128792      0.235163     -0.174411
      3.85541      3.72691      2.93720         0.023003     -0.103100     -0.015364
      0.75308      2.76870      4.91881         0.023003      0.103100      0.015364
      0.75308      6.01651      6.86521         0.023003      0.103100     -0.015364
      3.85541      0.47911      0.99080         0.023003     -0.103100      0.015364
      6.11459      3.66635      3.03607        -0.124045     -0.382872      0.180258
      3.01226      2.82926      4.81994        -0.124045      0.382872     -0.180258
      3.01226      6.07707      6.96407        -0.124045      0.382872      0.180258
      6.11459      0.41855      0.89194        -0.124045     -0.382872     -0.180258
      0.06411      3.86649      6.76628         0.229835      0.065860     -0.121250
      3.16644      2.62912      1.08973         0.229835     -0.065860      0.121250
      3.16644      5.87693      2.83827         0.229835     -0.065860     -0.121250
      0.06411      0.61869      5.01774         0.229835      0.065860      0.121250
    total drift:                               -0.018021      0.000000      0.000004

  FREE ENERGIE OF THE ION-ELECTRON SYSTEM (eV)
  free  energy   TOTEN  =       -57.58325167 eV

  energy  without entropy=      -57.58325167  energy(sigma->0) =      -57.58325167

[...]

 E-fermi :   2.7663     XC(G=0):  -8.8433     alpha+bet : -9.9611

[...]

 d Force = 0.1729113E-01[ 0.195E-01, 0.151E-01]  d Energy = 0.3361544E+01-0.334E+01
 d Force =-0.8045392E+00[-0.783E+00,-0.826E+00]  d Ewald  =-0.6077906E+02 0.600E+02

 Steepest descent step on ions:
 trial-energy change:   -3.361544  1 .order   -3.431749   -4.154246   -2.709253
  (g-gl).g = 0.415E+01      g.g   = 0.415E+01  gl.gl    = 0.000E+00
 g(Force)  = 0.147E-01   g(Stress)= 0.414E+01 ortho     = 0.000E+00
 gamma     =   0.00000
 trial     =   1.00000
 opt step  =   2.87493  (harmonic =   2.87493) maximal distance =0.01062040
 next E    =   -63.554826   (d E  =  -5.97157)

[...]

 Conjugate gradient step on ions:
 trial-energy change:   -0.133683  1 .order   -0.134426   -0.142242   -0.126610
  (g-gl).g = 0.101E+00      g.g   = 0.935E-01  gl.gl    = 0.415E+01
 g(Force)  = 0.925E-01   g(Stress)= 0.987E-03 ortho     =-0.700E-02
 gamma     =   0.02420
 trial     =   1.52350
 opt step  =   6.09400  (harmonic =  13.86276) maximal distance =0.04936025
 next E    =   -64.646604   (d E  =  -0.64715)

[...]

 d Force = 0.6896492E-02[-0.201E-02, 0.158E-01]  d Energy = 0.1344719E-01-0.655E-02
 d Force =-0.6531330E+01[-0.660E+01,-0.646E+01]  d Ewald  =-0.8196431E+01 0.167E+01

[...]

 Conjugate gradient step on ions:
 trial-energy change:   -0.038604  1 .order   -0.037264   -0.058776   -0.015751
  (g-gl).g = 0.134E-01      g.g   = 0.123E-01  gl.gl    = 0.935E-01
 g(Force)  = 0.585E-02   g(Stress)= 0.650E-02 ortho     = 0.182E-02
 gamma     =   0.14304
 trial     =   4.66285
 opt step  =   6.03726  (harmonic =   6.36989) maximal distance =0.01299713
 next E    =   -64.824647   (d E  =  -0.04096)

[...]

 d Force = 0.5386748E-03[-0.165E-02, 0.273E-02]  d Energy =-0.3703287E-02 0.424E-02
 d Force =-0.1173930E+01[-0.119E+01,-0.116E+01]  d Ewald  =-0.5472848E+01 0.430E+01

[...]

 d Force = 0.3168350E-03[-0.544E-03, 0.118E-02]  d Energy = 0.4130596E-02-0.381E-02
 d Force = 0.8325024E+00[ 0.825E+00, 0.840E+00]  d Ewald  = 0.3875903E+01-0.304E+01

[...]

 d Force = 0.1361976E-01[ 0.112E-01, 0.160E-01]  d Energy = 0.1927811E-01-0.566E-02
 d Force =-0.1105247E+01[-0.110E+01,-0.111E+01]  d Ewald  = 0.5590363E+01-0.670E+01

 Conjugate gradient step on ions:
 trial-energy change:   -0.019278  1 .order   -0.018659   -0.028171   -0.009148
  (g-gl).g = 0.298E-02      g.g   = 0.354E-02  gl.gl    = 0.439E-02
 g(Force)  = 0.145E-02   g(Stress)= 0.208E-02 ortho     = 0.465E-03
 gamma     =   0.67962
 trial     =   7.31449
 opt step  =  10.08587  (harmonic =  10.83174) maximal distance =0.02632990
 next E    =   -64.900704   (d E  =  -0.02104)

[...]

 d Force = 0.2896510E-02[ 0.153E-02, 0.427E-02]  d Energy = 0.9771669E-03 0.192E-02
 d Force =-0.4162512E+00[-0.415E+00,-0.417E+00]  d Ewald  = 0.2145812E+01-0.256E+01

[...]

 d Force = 0.9369127E-02[ 0.526E-02, 0.135E-01]  d Energy = 0.1047876E-01-0.111E-02
 d Force = 0.4850907E+00[ 0.511E+00, 0.459E+00]  d Ewald  = 0.7700069E+00-0.285E+00

[...]

 d Force = 0.1444671E-02[ 0.105E-02, 0.184E-02]  d Energy = 0.1202701E-02 0.242E-03
 d Force = 0.1802813E+00[ 0.184E+00, 0.177E+00]  d Ewald  = 0.2943536E+00-0.114E+00

[...]

 d Force = 0.1069732E-03[-0.189E-02, 0.211E-02]  d Energy = 0.7168938E-03-0.610E-03
 d Force = 0.3816237E+00[ 0.395E+00, 0.368E+00]  d Ewald  = 0.6307846E+00-0.249E+00

[...]

 d Force = 0.4344530E-03[ 0.151E-03, 0.718E-03]  d Energy = 0.2347601E-03 0.200E-03
 d Force =-0.1464877E+00[-0.145E+00,-0.148E+00]  d Ewald  =-0.2450685E+00 0.986E-01

[...]

 d Force = 0.3083607E-02[-0.712E-03, 0.688E-02]  d Energy = 0.2685529E-02 0.398E-03
 d Force = 0.7341614E+00[ 0.712E+00, 0.757E+00]  d Ewald  =-0.3468299E+01 0.420E+01

 Conjugate gradient step on ions:
 trial-energy change:   -0.002686  1 .order   -0.002757   -0.009783    0.004270
  (g-gl).g = 0.188E-03      g.g   = 0.109E-02  gl.gl    = 0.199E-02
 g(Force)  = 0.761E-03   g(Stress)= 0.330E-03 ortho     =-0.170E-03
 gamma     =   0.09421
 trial     =   9.09916
 opt step  =   6.33448  (harmonic =   6.33448) maximal distance =0.00538666
 next E    =   -64.915953   (d E  =  -0.00341)

[...]

 eigenvalue-minimisations  :   672
 total energy-change (2. order) :-0.1329106E-02  (-0.4701002E-02)
 number of electron      64.0000509 magnetization
 augmentation part       -8.9870799 magnetization

[...]

 Broyden mixing:
  rms(total) = 0.26483E-02    rms(broyden)= 0.26479E-02
  rms(prec ) = 0.32611E-02
  weight for this iteration     100.00

 eigenvalues of (default mixing * dielectric matrix)
  average eigenvalue GAMMA=   1.1986
  1.1986  1.1986

[...]

--------------------------------------- Iteration     23(   4)  ---------------------------------------

 eigenvalue-minimisations  :   336
 total energy-change (2. order) : 0.7969456E-05  (-0.1990045E-05)
 number of electron      64.0000509 magnetization
 augmentation part       -8.9945970 magnetization

 Free energy of the ion-electron system (eV)
  alpha Z        PSCENC =        56.24250794
  Ewald energy   TEWEN  =     -1859.40939509
  -Hartree energ DENC   =      -476.50515906
  -exchange      EXHF   =         0.00000000
  -V(xc)+E(xc)   XCENC  =      -252.01634478
  PAW double counting   =      4005.81685866    -3619.30952774
  entropy T*S    EENTRO =        -0.00000000
  eigenvalues    EBANDS =      -211.51394622
  atomic energy  EATOM  =      2291.77909288
  Solvation  Ediel_sol  =         0.00000000
  free energy    TOTEN  =       -64.91591342 eV

  energy without entropy =      -64.91591342  energy(sigma->0) =      -64.91591342

 average (electrostatic) potential at core
  the test charge radii are     1.1212  1.0406  1.0808
  (the norm of the test charge is              1.0000)
       1 -41.2177       2 -41.2177       3 -41.2177       4 -41.2177       5 -78.9054
       6 -78.9054       7 -78.9054       8 -78.9054       9 -55.6524      10 -55.6524
      11 -55.6524      12 -55.6524      13 -55.6746      14 -55.6746      15 -55.6746
      16 -55.6746

 E-fermi :   1.0791     XC(G=0):  -7.8360     alpha+bet : -7.7946

[...]

 k-point     8 :       0.3333    0.3333    0.3333
  band No.  band energies     occupation
      1     -10.9686      2.00000
      2     -10.8736      2.00000
      3     -10.6573      2.00000
      4     -10.5621      2.00000
      5     -10.3627      2.00000
      6     -10.3391      2.00000
      7     -10.3035      2.00000
      8     -10.2893      2.00000
      9      -3.9810      2.00000
     10      -3.7927      2.00000
     11      -3.2359      2.00000
     12      -3.0220      2.00000
     13      -1.7376      2.00000
     14      -1.6354      2.00000
     15      -1.4531      2.00000
     16      -1.3888      2.00000
     17      -1.0773      2.00000
     18      -1.0137      2.00000
     19      -0.8236      2.00000
     20      -0.6075      2.00000
     21      -0.4919      2.00000
     22      -0.3547      2.00000
     23      -0.2271      2.00000
     24      -0.1297      2.00000
     25      -0.0094      2.00000
     26       0.0355      2.00000
     27       0.3392      2.00000
     28       0.4095      2.00000
     29       0.6328      2.00000
     30       0.6780      2.00000
     31       0.7089      2.00000
     32       0.8229      2.00000
     33       4.4905      0.00000
     34       4.6553      0.00000
     35       4.9142      0.00000
     36       5.0721      0.00000
     37       5.3658      0.00000
     38       5.5460      0.00000
     39       5.6720      0.00000
     40       5.9258      0.00000
     41       6.0822      0.00000
     42       6.2163      0.00000

 soft charge-density along one line, spin component           1
         0         1         2         3         4         5         6         7         8         9
 total charge-density along one line

------------------------ aborting loop because EDIFF is reached ----------------------------------------

[...]

  FORCE on cell =-STRESS in cart. coord.  units (eV):
  Direction    XX          YY          ZZ          XY          YZ          ZX
  Alpha Z    56.24251    56.24251    56.24251
  Ewald    -616.38388  -643.55318  -599.47499     0.00000     0.00000     0.00000
  Hartree   166.58968   160.47077   149.35991    -0.00000    -0.00000    -0.00000
  E(xc)    -223.23380  -223.29889  -223.47895     0.00000     0.00000     0.00000
  Local    -410.20044  -380.18728  -402.10851    -0.00000    -0.00000     0.00000
  n-local   425.32793   424.17658   429.91945    -0.09713    -0.09930    -0.08214
  augment   -36.17280   -36.36347   -35.72125     0.00000    -0.00000     0.00000
  Kinetic   637.43928   642.19209   625.10035    -0.42643    -0.06693    -0.06019
  Fock        0.00000     0.00000     0.00000     0.00000     0.00000     0.00000
  Total      -0.39152    -0.32087    -0.16147     0.00000     0.00000     0.00000
  in kB      -1.42361    -1.16674    -0.58715     0.00000     0.00000     0.00000

 VOLUME and BASIS-vectors are now :
  energy-cutoff  :      300.00
  volume of cell :      440.62
      direct lattice vectors                 reciprocal lattice vectors
     6.834537584  0.000000000  0.000000000     0.146315678  0.000000000  0.000000000
     0.000000000  6.966608720  0.000000000     0.000000000  0.143541864  0.000000000
     0.000000000  0.000000000  9.254159090     0.000000000  0.000000000  0.108059521

  length of vectors
     6.834537584  6.966608720  9.254159090     0.146315678  0.143541864  0.108059521

 FORCES acting on ions
    electron-ion (+dipol)            ewald-force                    non-local-force                 convergence-correction
   0.140E-01 -.248E+01 -.378E+00   0.125E+00 0.206E+01 0.307E+00   -.178E+00 0.418E+00 0.921E-01   -.911E-04 -.830E-04 -.551E-04
   0.140E-01 0.248E+01 0.378E+00   0.125E+00 -.206E+01 -.307E+00   -.178E+00 -.418E+00 -.921E-01   -.911E-04 0.830E-04 0.551E-04
   0.140E-01 0.248E+01 -.378E+00   0.125E+00 -.206E+01 0.307E+00   -.178E+00 -.418E+00 0.921E-01   -.911E-04 0.830E-04 -.551E-04
   0.140E-01 -.248E+01 0.378E+00   0.125E+00 0.206E+01 -.307E+00   -.178E+00 0.418E+00 -.921E-01   -.911E-04 -.830E-04 0.551E-04
   0.103E+01 0.175E+01 0.520E+00   -.927E+00 -.152E+01 -.510E+00   -.888E-01 -.185E+00 -.135E-01   0.303E-03 -.382E-03 -.317E-03
   0.103E+01 -.175E+01 -.520E+00   -.927E+00 0.152E+01 0.510E+00   -.888E-01 0.185E+00 0.135E-01   0.303E-03 0.382E-03 0.317E-03
   0.103E+01 -.175E+01 0.520E+00   -.927E+00 0.152E+01 -.510E+00   -.888E-01 0.185E+00 -.135E-01   0.303E-03 0.382E-03 -.317E-03
   0.103E+01 0.175E+01 -.520E+00   -.927E+00 -.152E+01 0.510E+00   -.888E-01 -.185E+00 0.135E-01   0.303E-03 -.382E-03 0.317E-03
   -.206E+02 -.796E+01 0.292E+02   0.216E+02 0.827E+01 -.307E+02   -.110E+01 -.308E+00 0.151E+01   -.140E-02 -.114E-02 0.106E-02
   -.206E+02 0.796E+01 -.292E+02   0.216E+02 -.827E+01 0.307E+02   -.110E+01 0.308E+00 -.151E+01   -.140E-02 0.114E-02 -.106E-02
   -.206E+02 0.796E+01 0.292E+02   0.216E+02 -.827E+01 -.307E+02   -.110E+01 0.308E+00 0.151E+01   -.140E-02 0.114E-02 0.106E-02
   -.206E+02 -.796E+01 -.292E+02   0.216E+02 0.827E+01 0.307E+02   -.110E+01 -.308E+00 -.151E+01   -.140E-02 -.114E-02 -.106E-02
   0.199E+02 0.189E+02 -.287E+02   -.208E+02 -.197E+02 0.300E+02   0.928E+00 0.779E+00 -.139E+01   0.362E-02 -.187E-03 -.456E-02
   0.199E+02 -.189E+02 0.287E+02   -.208E+02 0.197E+02 -.300E+02   0.928E+00 -.779E+00 0.139E+01   0.362E-02 0.187E-03 0.456E-02
   0.199E+02 -.189E+02 -.287E+02   -.208E+02 0.197E+02 0.300E+02   0.928E+00 -.779E+00 -.139E+01   0.362E-02 0.187E-03 -.456E-02
   0.199E+02 0.189E+02 0.287E+02   -.208E+02 -.197E+02 -.300E+02   0.928E+00 0.779E+00 0.139E+01   0.362E-02 -.187E-03 0.456E-02
   0.163E+01 0.141E-11 -.270E-04   -.355E-14 -.107E-13 -.142E-13   -.174E+01 0.111E-15 0.000E+00   0.975E-02 0.205E-12 0.669E-12

 POSITION                                       TOTAL-FORCE (eV/Angst)
      0.76185      6.44931      3.51371        -0.033199     -0.009904      0.020643
      4.17912      0.51729      5.74045        -0.033199      0.009904     -0.020643
      4.17912      4.00060      8.14079        -0.033199      0.009904      0.020643
      0.76185      2.96601      1.11337        -0.033199     -0.009904     -0.020643
      4.24243      3.89718      3.46341         0.021691      0.043539     -0.003917
      0.82517      3.06943      5.79075         0.021691     -0.043539      0.003917
      0.82517      6.55273      8.09049         0.021691     -0.043539     -0.003917
      4.24243      0.41388      1.16367         0.021691      0.043539      0.003917
      6.64684      3.73107      3.71334        -0.004910     -0.001008      0.010336
      3.22957      3.23554      5.54082        -0.004910      0.001008     -0.010336
      3.22957      6.71885      8.34042        -0.004910      0.001008      0.010336
      6.64684      0.24776      0.91374        -0.004910     -0.001008     -0.010336
      0.20680      4.22338      7.81493         0.016418     -0.024692     -0.010196
      3.62407      2.74323      1.43923         0.016418      0.024692      0.010196
      3.62407      6.22654      3.18785         0.016418      0.024692     -0.010196
      0.20680      0.74007      6.06631         0.016418     -0.024692      0.010196
    total drift:                               -0.104213      0.000000     -0.000027

  FREE ENERGIE OF THE ION-ELECTRON SYSTEM (eV)
  free  energy   TOTEN  =       -64.91591342 eV

  energy  without entropy=      -64.91591342  energy(sigma->0) =      -64.91591342

 d Force =-0.1676248E-03[-0.551E-03, 0.216E-03]  d Energy = 0.6800265E-03-0.848E-03
 d Force =-0.2177101E+00[-0.220E+00,-0.216E+00]  d Ewald  = 0.1057251E+01-0.127E+01

 reached required accuracy - stopping structural energy minimisation

 total charge

# of ion       s       p       d       tot
    1        0.056   0.038   0.000   0.095
    2        0.056   0.038   0.000   0.095
    3        0.056   0.038   0.000   0.095
    4        0.057   0.038   0.000   0.095
    5        0.387   0.348   0.000   0.735
    6        0.387   0.348   0.000   0.735
    7        0.387   0.348   0.000   0.735
    8        0.387   0.348   0.000   0.735
    9        1.435   2.483   0.015   3.933
   10        1.435   2.483   0.015   3.933
   11        1.435   2.483   0.015   3.933
   12        1.435   2.484   0.015   3.934
   13        1.436   2.478   0.016   3.930
   14        1.436   2.478   0.016   3.930
   15        1.436   2.478   0.016   3.929
   16        1.436   2.478   0.016   3.929
tot         13.256  21.391   0.124  34.772