 vasp.5.4.4.18Apr17-6-g9f103f2a35 (build Oct 27 2022 13:04:57) complex

 executed on             LinuxIFC date 2024.06.29  23:17:06

 INCAR:
 POTCAR:    PAW_PBE K_pv 17Jan2003
 POTCAR:    PAW_PBE Sb 06Sep2000
 POTCAR:    PAW_PBE S 06Sep2000

 POTCAR:    PAW_PBE K_pv 17Jan2003
   VRHFIN =K:  p6s1

   TITEL  = PAW_PBE K_pv 17Jan2003
   POMASS =   39.098; ZVAL   =    7.000    mass and valenz
   ENMAX  =  116.731; ENMIN  =   87.548 eV

 POTCAR:    PAW_PBE Sb 06Sep2000
   VRHFIN =Sb: s2p3

   TITEL  = PAW_PBE Sb 06Sep2000
   POMASS =  121.750; ZVAL   =    5.000    mass and valenz
   ENMAX  =  172.069; ENMIN  =  129.052 eV

 POTCAR:    PAW_PBE S 06Sep2000
   VRHFIN =S : s2p4

   TITEL  = PAW_PBE S 06Sep2000
   POMASS =   32.066; ZVAL   =    6.000    mass and valenz
   ENMAX  =  258.689; ENMIN  =  194.016 eV

 Optimization of the real space projectors (new method)

 maximal supplied QI-value         = 12.09
 optimisation between [QCUT,QGAM] = [  8.83, 17.66] = [ 21.83, 87.31] Ry
 Optimized for a Real-space Cutoff    1.69 Angstroem

   l    n(q)    QCUT    max X(q) W(low)/X(q) W(high)/X(q)  e(spline)
   1      8     8.829    42.457    0.27E-03    0.59E-03    0.25E-06
   1      8     8.829    43.305    0.28E-03    0.61E-03    0.26E-06
   0      9     8.829    47.210    0.17E-02    0.12E-03    0.43E-06
   0      9     8.829    15.951    0.11E-02    0.76E-04    0.28E-06
   2      8     8.829     5.674    0.29E-03    0.69E-04    0.39E-07
 Optimization of the real space projectors (new method)

[...]

   l    n(q)    QCUT    max X(q) W(low)/X(q) W(high)/X(q)  e(spline)
   0      7     8.776    19.000    0.12E-02    0.42E-03    0.95E-07
   0      7     8.776     9.057    0.14E-02    0.54E-03    0.11E-06
   1      6     8.776   125.345    0.45E-03    0.22E-02    0.77E-07
   1      6     8.776    79.963    0.45E-03    0.21E-02    0.76E-07
   2      6     8.776     6.963    0.11E-02    0.51E-03    0.39E-07
 Optimization of the real space projectors (new method)

 maximal supplied QI-value         = 19.84
 optimisation between [QCUT,QGAM] = [  8.73, 17.66] = [ 21.34, 87.33] Ry
 Optimized for a Real-space Cutoff    1.22 Angstroem

   l    n(q)    QCUT    max X(q) W(low)/X(q) W(high)/X(q)  e(spline)
   0      6     8.731   187.594    0.15E-02    0.56E-03    0.90E-07
   0      6     8.731   164.243    0.15E-02    0.56E-03    0.89E-07
   1      6     8.731    67.533    0.37E-03    0.20E-02    0.11E-06
   1      6     8.731    50.729    0.36E-03    0.19E-02    0.10E-06
  PAW_PBE K_pv 17Jan2003                :
  PAW_PBE Sb 06Sep2000                  :
  PAW_PBE S 06Sep2000                   :

 POSCAR: K4 Sb4 S8
  positions in direct lattice
 exchange correlation table for  LEXCH =        8
   RHO(1)=    0.500       N(1)  =     2000
   RHO(2)=  100.500       N(2)  =     4000

 ion  position               nearest neighbor table
   1  0.517  0.738  0.881-  15 3.27  10 3.32  12 3.33  12 3.33  15 3.36  16 3.41   6 4.24   5 4.27
                             2 4.33   8 4.47   3 4.47   6 4.56   2 4.57   3 4.75
   2  0.483  0.262  0.119-  16 3.27   9 3.32  11 3.33  11 3.33  16 3.36  15 3.41   5 4.24   6 4.27
                             1 4.33   7 4.47   4 4.47   5 4.56   1 4.57   4 4.75
   3  0.984  0.737  0.619-  13 3.27  12 3.32  10 3.32  10 3.33  13 3.36  14 3.41   8 4.24   7 4.27
                             4 4.33   6 4.46   1 4.47   8 4.57   4 4.57   1 4.75
   4  0.016  0.263  0.381-  14 3.27  11 3.32   9 3.32   9 3.33  14 3.36  13 3.41   7 4.24   8 4.27
                             3 4.33   5 4.46   2 4.47   7 4.57   3 4.57   2 4.75
   5  0.037  0.796  0.121-  11 2.58  16 2.58  14 2.90  12 2.93   2 4.24   1 4.27   4 4.46   2 4.56

   6  0.963  0.204  0.879-  12 2.58  15 2.58  13 2.90  11 2.93   1 4.24   2 4.27   3 4.46   1 4.56

[...]

   9  0.517  0.186  0.384-   7 2.58   8 2.93   2 3.32   4 3.32   4 3.33
  10  0.483  0.814  0.616-   8 2.58   7 2.93   1 3.32   3 3.32   3 3.33
  11  0.983  0.186  0.115-   5 2.58   6 2.93   4 3.32   2 3.33   2 3.33
  12  0.017  0.814  0.885-   6 2.58   5 2.93   3 3.32   1 3.33   1 3.33
  13  0.932  0.230  0.645-   8 2.58   6 2.90   3 3.27   3 3.36   4 3.41
  14  0.068  0.770  0.355-   7 2.58   5 2.90   4 3.27   4 3.36   3 3.41
  15  0.568  0.231  0.855-   6 2.58   8 2.90   1 3.27   1 3.36   2 3.41
  16  0.432  0.769  0.145-   5 2.58   7 2.90   2 3.27   2 3.36   1 3.41

  LATTYP: Found a triclinic cell.
 ALAT       =     6.5798618772
 B/A-ratio  =     2.2511181413
 C/A-ratio  =     0.9954268990
 COS(alpha) =     0.0001051169
 COS(beta)  =     0.0013766762
 COS(gamma) =     0.5517367503

  Lattice vectors:

 A1 = (   6.4569994200,   0.7907541400,  -0.9881541900)
 A2 = (   6.3097297400,  -0.2637628100, -13.3983006200)
 A3 = (  -0.8651498400,   6.4702543800,  -0.5355658400)

Analysis of symmetry for initial positions (statically):
 Subroutine PRICEL returns:
 Original cell was already a primitive cell.

 Routine SETGRP: Setting up the symmetry group for a
 triclinic supercell.

 Subroutine GETGRP returns: Found  2 space group operations
 (whereof  2 operations were pure point group operations)
 out of a pool of  2 trial point group operations.

The static configuration has the point symmetry S_2 .

Analysis of symmetry for dynamics (positions and initial velocities):
 Subroutine PRICEL returns:
 Original cell was already a primitive cell.

 Routine SETGRP: Setting up the symmetry group for a
 triclinic supercell.

 Subroutine GETGRP returns: Found  2 space group operations
 (whereof  2 operations were pure point group operations)
 out of a pool of  2 trial point group operations.

The dynamic configuration has the point symmetry S_2 .

 Subroutine INISYM returns: Found  2 space group operations
 (whereof  2 operations are pure point group operations),
 and found     1 'primitive' translations

 KPOINTS: pymatgen with grid density = 807 / numbe

Automatic generation of k-mesh.
Space group operators:
 irot       det(A)        alpha          n_x          n_y          n_z        tau_x        tau_y        tau_z
    1     1.000000     0.000000     1.000000     0.000000     0.000000     0.000000     0.000000     0.000000
    2    -1.000000     0.000000     1.000000     0.000000     0.000000     0.000000     0.000000     0.000000

 Subroutine IBZKPT returns following result:

 Found      9 irreducible k-points:

 Following reciprocal coordinates:
            Coordinates               Weight
  0.000000  0.000000  0.250000      2.000000
  0.333333 -0.000000  0.250000      2.000000
 -0.333333 -0.000000  0.250000      2.000000
 -0.000000  0.333333  0.250000      2.000000
  0.333333  0.333333  0.250000      2.000000
 -0.333333  0.333333  0.250000      2.000000
 -0.000000 -0.333333  0.250000      2.000000
  0.333333 -0.333333  0.250000      2.000000
 -0.333333 -0.333333  0.250000      2.000000

 Following cartesian coordinates:
            Coordinates               Weight
  0.002803  0.002025  0.019939      2.000000
  0.053431  0.008698  0.018772      2.000000
 -0.047824 -0.004648  0.021107      2.000000
 -0.003993  0.052287  0.015749      2.000000
  0.046634  0.058960  0.014581      2.000000
 -0.054621  0.045615  0.016917      2.000000
  0.009600 -0.048237  0.024130      2.000000
  0.060228 -0.041564  0.022962      2.000000
 -0.041028 -0.054910  0.025297      2.000000

 SYSTEM =  CIS
 POSCAR =  K4 Sb4 S8

 Startparameter for this run:
   NWRITE =      2    write-flag & timer
   PREC   = medium    normal or accurate (medium, high low for compatibility)
   ISTART =      0    job   : 0-new  1-cont  2-samecut
   ICHARG =      2    charge: 1-file 2-atom 10-const
   ISPIN  =      1    spin polarized calculation?
   LNONCOLLINEAR =      F non collinear calculations
   LSORBIT =      F    spin-orbit coupling
   INIWAV =      1    electr: 0-lowe 1-rand  2-diag
   LASPH  =      T    aspherical Exc in radial PAW
   METAGGA=      F    non-selfconsistent MetaGGA calc.

 Electronic Relaxation 1
   ENCUT  =  300.0 eV  22.05 Ry    4.70 a.u.   9.29  9.25 17.59*2*pi/ulx,y,z
   ENINI  =  300.0     initial cutoff
   ENAUG  =  380.5 eV  augmentation charge cutoff
   NELM   =     60;   NELMIN=  2; NELMDL= -5     # of ELM steps
   EDIFF  = 0.1E-03   stopping-criterion for ELM
   LREAL  =      T    real-space projection
   NLSPLINE    = F    spline interpolate recip. space projectors
   LCOMPAT=      F    compatible to vasp.4.4
   GGA_COMPAT  = T    GGA compatible to vasp.4.4-vasp.4.6
   LMAXPAW     = -100 max onsite density
   LMAXMIX     =    4 max onsite mixed and CHGCAR
   VOSKOWN=      0    Vosko Wilk Nusair interpolation
   ROPT   =   -0.00200  -0.00200  -0.00200
 Ionic relaxation
   EDIFFG = -.5E-01   stopping-criterion for IOM
   NSW    =     99    number of steps for IOM
   NBLOCK =      1;   KBLOCK =     99    inner block; outer block
   IBRION =      2    ionic relax: 0-MD 1-quasi-New 2-CG
   NFREE  =      1    steps in history (QN), initial steepest desc. (CG)
   ISIF   =      3    stress and relaxation
   IWAVPR =     11    prediction:  0-non 1-charg 2-wave 3-comb
   ISYM   =      2    0-nonsym 1-usesym 2-fastsym
   LCORR  =      T    Harris-Foulkes like correction to forces

   POTIM  = 0.1000    time-step for ionic-motion
   TEIN   =    0.0    initial temperature
   TEBEG  =    0.0;   TEEND  =   0.0 temperature during run
   SMASS  =  -3.00    Nose mass-parameter (am)
   estimated Nose-frequenzy (Omega)   =  0.10E-29 period in steps =****** mass=  -0.989E-27a.u.
   SCALEE = 1.0000    scale energy and forces
   NPACO  =    256;   APACO  = 16.0  distance and # of slots for P.C.
   PSTRESS=    0.0 pullay stress

  Mass of Ions in am
   POMASS =  39.10121.75 32.07
  Ionic Valenz
   ZVAL   =   7.00  5.00  6.00
  Atomic Wigner-Seitz radii
  virtual crystal weights
   VCA    =   1.00  1.00  1.00
   NELECT =      96.0000    total number of electrons
   NUPDOWN=      -1.0000    fix difference up-down

 DOS related values:
   EMIN   =  10.00;   EMAX   =-10.00  energy-range for DOS
   EFERMI =   0.00
   ISMEAR =     0;   SIGMA  =   0.05  broadening in eV -4-tet -1-fermi 0-gaus

 Electronic relaxation 2 (details)
   IALGO  =     38    algorithm
   LDIAG  =      T    sub-space diagonalisation (order eigenvalues)
   LSUBROT=      F    optimize rotation matrix (better conditioning)
   TURBO    =      0    0=normal 1=particle mesh
   IRESTART =      0    0=no restart 2=restart with 2 vectors
   NREBOOT  =      0    no. of reboots
   NMIN     =      0    reboot dimension
   EREF     =   0.00    reference energy to select bands
   IMIX   =      4    mixing-type and parameters
     AMIX     =   0.40;   BMIX     =  1.00
     AMIX_MAG =   1.60;   BMIX_MAG =  1.00
     AMIN     =   0.10
     WC   =   100.;   INIMIX=   1;  MIXPRE=   1;  MAXMIX= -45

 Intra band minimization:
   WEIMIN = 0.0010     energy-eigenvalue tresh-hold
   EBREAK =  0.36E-06  absolut break condition
   DEPER  =   0.30     relativ break condition

   TIME   =   0.40     timestep for ELM

  volume/ion in A,a.u.               =      33.27       224.55
  Fermi-wavevector in a.u.,A,eV,Ry     =   0.924885  1.747779 11.638581  0.855412
  Thomas-Fermi vector in A             =   2.050679

 Write flags
   LWAVE        =      F    write WAVECAR
[...]
 d Force =-0.1985975E+00[-0.199E+00,-0.198E+00]  d Ewald  = 0.5294959E+00-0.728E+00

[...]

 d Force = 0.2486401E-02[ 0.157E-02, 0.341E-02]  d Energy = 0.7558444E-02-0.507E-02
 d Force = 0.5255535E+00[ 0.524E+00, 0.527E+00]  d Ewald  = 0.2010524E+01-0.148E+01

 Conjugate gradient step on ions:
 trial-energy change:   -0.007558  1 .order   -0.007729   -0.009967   -0.005491
  (g-gl).g = 0.532E-02      g.g   = 0.643E-02  gl.gl    = 0.382E+00
 g(Force)  = 0.231E-02   g(Stress)= 0.412E-02 ortho     = 0.111E-02
 gamma     =   0.01392
 trial     =   1.54557
 opt step  =   3.44135  (harmonic =   3.44135) maximal distance =0.00737877
 next E    =   -65.440557   (d E  =  -0.01110)

[...]

 d Force = 0.1010564E-04[-0.112E-03, 0.132E-03]  d Energy = 0.4038453E-03-0.394E-03
 d Force = 0.2570510E+00[ 0.257E+00, 0.257E+00]  d Ewald  = 0.9814600E+00-0.724E+00

[...]

 d Force = 0.1352138E-02[ 0.128E-02, 0.142E-02]  d Energy = 0.1672082E-02-0.320E-03
 d Force =-0.1231337E+00[-0.124E+00,-0.123E+00]  d Ewald  =-0.8956149E+00 0.772E+00

[...]

 Conjugate gradient step on ions:
 trial-energy change:   -0.001141  1 .order   -0.001177   -0.001178   -0.001175
  (g-gl).g = 0.123E-02      g.g   = 0.120E-02  gl.gl    = 0.852E-03
 g(Force)  = 0.109E-02   g(Stress)= 0.105E-03 ortho     =-0.290E-04
 gamma     =   1.44750
 trial     =   1.01845
 opt step  =   4.07380  (harmonic = 379.83887) maximal distance =0.00768003
 next E    =   -65.664494   (d E  =  -0.21969)

[...]

 d Force = 0.2885597E-02[-0.156E-03, 0.593E-02]  d Energy = 0.2217360E-02 0.668E-03
 d Force =-0.2162692E+01[-0.217E+01,-0.215E+01]  d Ewald  =-0.3340999E+01 0.118E+01

[...]

 d Force = 0.2324478E-03[ 0.180E-03, 0.285E-03]  d Energy = 0.1784894E-03 0.540E-04
 d Force = 0.1684894E+00[ 0.168E+00, 0.169E+00]  d Ewald  =-0.3113077E+00 0.480E+00

[...]

 d Force = 0.2630367E-03[ 0.166E-03, 0.360E-03]  d Energy =-0.1456283E-03 0.409E-03
 d Force = 0.3351947E+00[ 0.334E+00, 0.336E+00]  d Ewald  =-0.6253176E+00 0.961E+00

[...]

 d Force =-0.1303216E-03[-0.180E-03,-0.803E-04]  d Energy = 0.1435509E-03-0.274E-03
 d Force =-0.1616424E+00[-0.162E+00,-0.161E+00]  d Ewald  = 0.3029000E+00-0.465E+00

[...]

 d Force =-0.2211747E-04[-0.145E-03, 0.101E-03]  d Energy =-0.1287686E-04-0.924E-05
 d Force =-0.7462689E-01[-0.750E-01,-0.743E-01]  d Ewald  =-0.8335767E-01 0.873E-02

[...]

 d Force = 0.2032590E-04[-0.490E-04, 0.896E-04]  d Energy = 0.1840072E-04 0.193E-05
 d Force = 0.4611220E-01[ 0.460E-01, 0.462E-01]  d Ewald  = 0.5147475E-01-0.536E-02

[...]

 d Force = 0.3449953E-03[ 0.198E-03, 0.492E-03]  d Energy =-0.1351126E-03 0.480E-03
 d Force =-0.1253891E+00[-0.128E+00,-0.122E+00]  d Ewald  =-0.2133896E+01 0.201E+01

[...]

 d Force =-0.1871665E-03[-0.414E-03, 0.399E-04]  d Energy =-0.3556766E-04-0.152E-03
 d Force = 0.4865574E-01[ 0.481E-01, 0.492E-01]  d Ewald  = 0.6749793E-01-0.188E-01

[...]

 d Force =-0.1551196E-04[-0.147E-03, 0.115E-03]  d Energy = 0.2536436E-03-0.269E-03
 d Force = 0.2305052E-01[ 0.227E-01, 0.234E-01]  d Ewald  = 0.6784764E+00-0.655E+00

[...]

 d Force = 0.2080910E-03[-0.629E-03, 0.105E-02]  d Energy =-0.8881772E-03 0.110E-02
 d Force =-0.3709177E+00[-0.378E+00,-0.364E+00]  d Ewald  =-0.7075064E+00 0.337E+00

[...]

 Conjugate gradient step on ions:
 trial-energy change:   -0.000429  1 .order   -0.000405   -0.000493   -0.000317
  (g-gl).g = 0.338E-03      g.g   = 0.337E-03  gl.gl    = 0.406E-03
 g(Force)  = 0.223E-03   g(Stress)= 0.114E-03 ortho     = 0.249E-04
 gamma     =   0.83406
 trial     =   1.37708
 opt step  =   3.85458  (harmonic =   3.85458) maximal distance =0.00266325
 next E    =   -65.462808   (d E  =  -0.00069)

[...]

 d Force = 0.2029208E-04[-0.275E-03, 0.316E-03]  d Energy =-0.6984821E-04 0.901E-04
 d Force = 0.1275457E+00[ 0.127E+00, 0.128E+00]  d Ewald  = 0.8078059E+00-0.680E+00

[...]

 d Force = 0.1467581E-03[ 0.119E-03, 0.174E-03]  d Energy = 0.2143607E-03-0.676E-04
 d Force =-0.2968991E-01[-0.298E-01,-0.296E-01]  d Ewald  = 0.4474025E+00-0.477E+00

[...]

 d Force = 0.1552902E-03[-0.399E-04, 0.350E-03]  d Energy = 0.5239090E-04 0.103E-03
 d Force =-0.8833194E-01[-0.892E-01,-0.875E-01]  d Ewald  = 0.1313047E+01-0.140E+01

[...]

 d Force =-0.4232374E-05[-0.158E-04, 0.730E-05]  d Energy = 0.4763629E-04-0.519E-04
 d Force = 0.1625831E-01[ 0.162E-01, 0.163E-01]  d Ewald  =-0.2396927E+00 0.256E+00

[...]

 d Force =-0.4640461E-04[-0.575E-04,-0.353E-04]  d Energy = 0.4908821E-04-0.955E-04
 d Force = 0.3618088E-01[ 0.360E-01, 0.363E-01]  d Ewald  =-0.5366010E+00 0.573E+00

[...]

 eigenvalues of (default mixing * dielectric matrix)
  average eigenvalue GAMMA=   0.9232
  0.9232

[...]

 d Force = 0.2395445E-03[-0.256E-03, 0.735E-03]  d Energy = 0.2581022E-03-0.186E-04
 d Force =-0.4291229E+00[-0.430E+00,-0.428E+00]  d Ewald  =-0.1038234E+01 0.609E+00

[...]

 d Force = 0.4148159E-04[ 0.299E-04, 0.531E-04]  d Energy = 0.4654873E-04-0.507E-05
 d Force = 0.8903118E-01[ 0.890E-01, 0.891E-01]  d Ewald  = 0.2152171E+00-0.126E+00

[...]

 d Force =-0.3476067E-04[-0.127E-03, 0.572E-04]  d Energy =-0.7156231E-04 0.368E-04
 d Force = 0.1701380E+00[ 0.170E+00, 0.170E+00]  d Ewald  = 0.4116063E+00-0.241E+00

[...]

 eigenvalue-minimisations  :  1260
 total energy-change (2. order) :-0.1356365E-03  (-0.2617997E-03)
 number of electron      96.0000275 magnetization
 augmentation part        5.1010107 magnetization

 Broyden mixing:
  rms(total) = 0.32699E-02    rms(broyden)= 0.32691E-02
  rms(prec ) = 0.38377E-02
  weight for this iteration     100.00

[...]

--------------------------------------- Iteration     53(   2)  ---------------------------------------

 eigenvalue-minimisations  :   742
 total energy-change (2. order) : 0.9295382E-05  (-0.1201982E-04)
 number of electron      96.0000275 magnetization
 augmentation part        5.1010107 magnetization

 Free energy of the ion-electron system (eV)
  alpha Z        PSCENC =       177.22944911
  Ewald energy   TEWEN  =     -3622.92413154
  -Hartree energ DENC   =      -930.51599857
  -exchange      EXHF   =         0.00000000
  -V(xc)+E(xc)   XCENC  =       -38.38288627
  PAW double counting   =      6734.50523455    -6479.90143082
  entropy T*S    EENTRO =        -0.00000000
  eigenvalues    EBANDS =      -521.71726970
  atomic energy  EATOM  =      4616.24348075
  Solvation  Ediel_sol  =         0.00000000
  free energy    TOTEN  =       -65.46355249 eV

  energy without entropy =      -65.46355249  energy(sigma->0) =      -65.46355249

 average (electrostatic) potential at core
  the test charge radii are     1.3383  1.1712  0.9698
  (the norm of the test charge is              1.0000)
       1 -11.8998       2 -11.8998       3 -11.8926       4 -11.8926       5 -91.3999
       6 -91.3999       7 -91.3971       8 -91.3971       9 -89.0541      10 -89.0541
      11 -89.0310      12 -89.0310      13 -89.1300      14 -89.1300      15 -89.1064
      16 -89.1064

 E-fermi :   1.4189     XC(G=0):  -8.0220     alpha+bet : -7.6693

[...]

 k-point     9 :      -0.3333   -0.3333    0.2500
  band No.  band energies     occupation
      1     -11.8669      2.00000
      2     -11.6183      2.00000
      3     -11.5889      2.00000
      4     -11.4928      2.00000
      5     -11.4779      2.00000
      6     -11.4553      2.00000
      7     -11.4123      2.00000
      8     -11.3933      2.00000
      9     -11.3598      2.00000
     10     -11.3547      2.00000
     11     -11.3270      2.00000
     12     -11.3219      2.00000
     13     -11.1250      2.00000
     14     -10.9748      2.00000
     15     -10.8565      2.00000
     16     -10.1730      2.00000
     17     -10.0868      2.00000
     18     -10.0187      2.00000
     19      -9.9538      2.00000
     20      -9.9179      2.00000
     21      -7.3722      2.00000
     22      -6.5383      2.00000
     23      -6.3465      2.00000
     24      -5.7004      2.00000
     25      -2.7656      2.00000
     26      -2.1545      2.00000
     27      -2.0249      2.00000
     28      -1.9703      2.00000
     29      -1.8800      2.00000
     30      -1.7027      2.00000
     31      -1.5244      2.00000
     32      -1.3496      2.00000
     33      -1.2099      2.00000
     34      -0.8216      2.00000
     35      -0.5102      2.00000
     36      -0.2930      2.00000
     37      -0.1699      2.00000
     38      -0.0506      2.00000
     39       0.0431      2.00000
     40       0.0526      2.00000
     41       0.1998      2.00000
     42       0.3321      2.00000
     43       0.3570      2.00000
     44       0.4099      2.00000
     45       0.6740      2.00000
     46       0.7266      2.00000
     47       1.0852      2.00000
     48       1.1494      2.00000
     49       3.1546      0.00000
     50       3.4361      0.00000
     51       3.5943      0.00000
     52       3.8230      0.00000
     53       4.1684      0.00000
     54       4.3365      0.00000
     55       4.5589      0.00000
     56       4.6640      0.00000
     57       4.7457      0.00000
     58       4.8388      0.00000
     59       4.9409      0.00000
     60       5.4916      0.00000
     61       6.5654      0.00000
     62       6.8750      0.00000
     63       7.1816      0.00000
     64       7.2819      0.00000
     65       7.3357      0.00000
     66       7.6201      0.00000
     67       7.7315      0.00000
     68       7.8445      0.00000
     69       7.9623      0.00000
     70       8.1049      0.00000

 soft charge-density along one line, spin component           1
         0         1         2         3         4         5         6         7         8         9
 total charge-density along one line

------------------------ aborting loop because EDIFF is reached ----------------------------------------

[...]

  FORCE on cell =-STRESS in cart. coord.  units (eV):
  Direction    XX          YY          ZZ          XY          YZ          ZX
  Alpha Z   177.22945   177.22945   177.22945
  Ewald   -1261.07250 -1326.60354 -1035.25634    11.12946    24.30782     2.71453
  Hartree   281.68308   226.95828   422.02638     7.07214    14.18169   -16.42960
  E(xc)    -355.09854  -355.06182  -352.14878     0.01152     0.27311     0.15377
  Local    -396.86808  -279.52126  -758.57377   -17.23534   -37.26655    19.43032
  n-local   818.27445   818.82878   798.64932    -0.29290    -2.04874    -1.61130
  augment  -182.65369  -182.87883  -179.68419     0.05224     0.28437     0.20358
  Kinetic   918.68941   921.16619   927.65890    -0.81690     0.24032    -4.53854
  Fock        0.00000     0.00000     0.00000     0.00000     0.00000     0.00000
  Total       0.18359     0.11724    -0.09904    -0.07978    -0.02799    -0.07725
  in kB       0.59762     0.38164    -0.32239    -0.25970    -0.09112    -0.25145

 VOLUME and BASIS-vectors are now :
  energy-cutoff  :      300.00
  volume of cell :      492.18
      direct lattice vectors                 reciprocal lattice vectors
     6.357998106  0.776415044 -0.947979937     0.154240396  0.020407224 -0.003687185
    -0.849183636  6.324449737 -0.519084705    -0.020771706  0.154263069 -0.012968946
     0.149689124  1.022216201 11.919311942     0.011362613  0.008341189  0.083039411

  length of vectors
     6.475000093  6.402282894 11.964001420     0.155628243  0.156194596  0.084227241

 FORCES acting on ions
    electron-ion (+dipol)            ewald-force                    non-local-force                 convergence-correction
   0.509E+01 0.345E+02 -.118E+02   -.508E+01 -.336E+02 0.111E+02   -.494E-02 -.830E+00 0.631E+00   -.394E-02 -.475E-02 -.110E-02
   -.509E+01 -.345E+02 0.118E+02   0.508E+01 0.336E+02 -.111E+02   0.494E-02 0.830E+00 -.631E+00   0.394E-02 0.475E-02 0.110E-02
   -.141E+02 0.336E+02 0.363E+01   0.138E+02 -.327E+02 -.319E+01   0.222E+00 -.896E+00 -.440E+00   0.674E-04 -.206E-02 -.218E-02
   0.141E+02 -.336E+02 -.363E+01   -.138E+02 0.327E+02 0.319E+01   -.222E+00 0.896E+00 0.440E+00   -.674E-04 0.206E-02 0.218E-02
   0.305E+02 0.495E+02 -.476E+01   -.374E+02 -.589E+02 0.534E+01   0.688E+01 0.937E+01 -.546E+00   -.122E-02 0.819E-03 0.181E-02
   -.305E+02 -.495E+02 0.476E+01   0.374E+02 0.589E+02 -.534E+01   -.688E+01 -.937E+01 0.546E+00   0.122E-02 -.819E-03 -.181E-02
   -.419E+02 0.408E+02 -.132E+01   0.509E+02 -.482E+02 0.200E+01   -.903E+01 0.738E+01 -.662E+00   0.379E-02 -.253E-02 0.222E-02
   0.419E+02 -.408E+02 0.132E+01   -.509E+02 0.482E+02 -.200E+01   0.903E+01 -.738E+01 0.662E+00   -.379E-02 0.253E-02 -.222E-02
   -.651E+01 -.528E+02 0.154E+02   0.623E+01 0.559E+02 -.174E+02   0.292E+00 -.316E+01 0.195E+01   -.181E-02 0.625E-02 -.224E-02
   0.651E+01 0.528E+02 -.154E+02   -.623E+01 -.559E+02 0.174E+02   -.292E+00 0.316E+01 -.195E+01   0.181E-02 -.625E-02 0.224E-02
   0.209E+02 -.510E+02 -.379E+01   -.215E+02 0.544E+02 0.509E+01   0.598E+00 -.343E+01 -.132E+01   -.357E-02 0.483E-03 0.768E-02
   -.209E+02 0.510E+02 0.379E+01   0.215E+02 -.544E+02 -.509E+01   -.598E+00 0.343E+01 0.132E+01   0.357E-02 -.483E-03 -.768E-02
   -.439E+02 -.354E+02 0.160E+02   0.469E+02 0.357E+02 -.178E+02   -.302E+01 -.350E+00 0.182E+01   0.208E-02 0.194E-02 -.617E-02
   0.439E+02 0.354E+02 -.160E+02   -.469E+02 -.357E+02 0.178E+02   0.302E+01 0.350E+00 -.182E+01   -.208E-02 -.194E-02 0.617E-02
   0.519E+02 -.253E+02 -.131E+02   -.550E+02 0.251E+02 0.148E+02   0.308E+01 0.161E+00 -.175E+01   -.110E-01 0.255E-02 0.575E-02
   -.519E+02 0.253E+02 0.131E+02   0.550E+02 -.251E+02 -.148E+02   -.308E+01 -.161E+00 0.175E+01   0.110E-01 -.255E-02 -.575E-02
   0.246E-11 0.760E-11 0.572E-10   0.711E-14 -.142E-13 0.711E-14   -.222E-14 0.183E-14 0.222E-15   0.407E-13 0.328E-13 -.190E-12

 POSITION                                       TOTAL-FORCE (eV/Angst)
      2.78353      5.95728      9.62023         0.002433      0.006400      0.005757
      2.87497      2.16580      0.83202        -0.002433     -0.006400     -0.005757
      5.73633      6.05298      6.08314        -0.007213      0.003795      0.001358
     -0.07782      2.07010      4.36911         0.007213     -0.003795     -0.001358
     -0.42294      5.20493      1.01300         0.013637     -0.006082      0.028553
      6.08144      2.91815      9.43925        -0.013637      0.006082     -0.028553
      2.29869      5.77886      3.67849         0.028450     -0.028469      0.015204
      3.35981      2.34422      6.77376        -0.028450      0.028469     -0.015204
      3.19059      1.90932      4.00990         0.003896      0.015457     -0.012350
      2.46791      6.21376      6.44235        -0.003896     -0.015457      0.012350
      6.11773      2.01426      0.33958        -0.006348      0.002101     -0.011216
     -0.45923      6.10882     10.11267         0.006348     -0.002101      0.011216
      5.77509      2.81230      6.67194         0.006537      0.000244      0.005314
     -0.11659      5.31078      3.78031        -0.006537     -0.000244     -0.005314
      3.62533      2.76710      9.51633         0.018067      0.011308     -0.008668
      2.03318      5.35598      0.93592        -0.018067     -0.011308      0.008668
    total drift:                                0.000000      0.000000      0.000000

  FREE ENERGIE OF THE ION-ELECTRON SYSTEM (eV)
  free  energy   TOTEN  =       -65.46355249 eV

  energy  without entropy=      -65.46355249  energy(sigma->0) =      -65.46355249

 d Force = 0.1156504E-03[ 0.256E-05, 0.229E-03]  d Energy = 0.1266425E-03-0.110E-04
 d Force =-0.2065898E+00[-0.207E+00,-0.207E+00]  d Ewald  =-0.4719599E+00 0.265E+00

 Conjugate gradient step on ions:
 trial-energy change:   -0.000127  1 .order   -0.000183   -0.000306   -0.000059
  (g-gl).g = 0.211E-03      g.g   = 0.304E-03  gl.gl    = 0.491E-03
 g(Force)  = 0.221E-03   g(Stress)= 0.839E-04 ortho     =-0.120E-04
 gamma     =   0.43076
 trial     =   1.02394
 opt step  =   1.26751  (harmonic =   1.26751) maximal distance =0.00095694
 next E    =   -65.463616   (d E  =  -0.00019)

 reached required accuracy - stopping structural energy minimisation

 total charge

# of ion       s       p       d       tot
    1        0.074   6.081   0.071   6.226
    2        0.074   6.081   0.071   6.226
    3        0.075   6.083   0.072   6.230
    4        0.075   6.083   0.072   6.230
    5        1.253   0.972   0.068   2.292
    6        1.253   0.972   0.068   2.292
    7        1.253   0.972   0.068   2.293
    8        1.253   0.972   0.068   2.293
    9        1.346   2.363   0.000   3.709
   10        1.346   2.363   0.000   3.709
   11        1.346   2.362   0.000   3.708
   12        1.346   2.362   0.000   3.708
   13        1.346   2.364   0.000   3.710
   14        1.346   2.364   0.000   3.710
   15        1.346   2.363   0.000   3.709
   16        1.346   2.363   0.000   3.709
tot         16.077  47.120   0.559  63.756