 vasp.5.4.4.18Apr17-6-g9f103f2a35 (build Oct 27 2022 13:04:57) complex

 executed on             LinuxIFC date 2024.07.04  08:45:30

 INCAR:
 POTCAR:    PAW_PBE Li 17Jan2003
 POTCAR:    PAW_PBE Sb 06Sep2000
 POTCAR:    PAW_PBE S 06Sep2000

 POTCAR:    PAW_PBE Li 17Jan2003
   VRHFIN =Li: s1p0

   TITEL  = PAW_PBE Li 17Jan2003
   POMASS =    7.010; ZVAL   =    1.000    mass and valenz
   ENMAX  =  140.000; ENMIN  =  100.000 eV

 POTCAR:    PAW_PBE Sb 06Sep2000
   VRHFIN =Sb: s2p3

   TITEL  = PAW_PBE Sb 06Sep2000
   POMASS =  121.750; ZVAL   =    5.000    mass and valenz
   ENMAX  =  172.069; ENMIN  =  129.052 eV

 POTCAR:    PAW_PBE S 06Sep2000
   VRHFIN =S : s2p4

   TITEL  = PAW_PBE S 06Sep2000
   POMASS =   32.066; ZVAL   =    6.000    mass and valenz
   ENMAX  =  258.689; ENMIN  =  194.016 eV

 Optimization of the real space projectors (new method)

 maximal supplied QI-value         = 18.33
 optimisation between [QCUT,QGAM] = [  8.80, 17.60] = [ 21.68, 86.71] Ry
 Optimized for a Real-space Cutoff    1.15 Angstroem

   l    n(q)    QCUT    max X(q) W(low)/X(q) W(high)/X(q)  e(spline)
   0      6     8.799    33.825    0.11E-02    0.11E-02    0.82E-07
   0      6     8.799     8.944    0.75E-03    0.85E-03    0.59E-07
   1      5     8.799     4.214    0.92E-03    0.27E-03    0.41E-07
 Optimization of the real space projectors (new method)

[...]

   l    n(q)    QCUT    max X(q) W(low)/X(q) W(high)/X(q)  e(spline)
   0      7     8.776    19.000    0.12E-02    0.42E-03    0.95E-07
   0      7     8.776     9.057    0.14E-02    0.54E-03    0.11E-06
   1      6     8.776   125.345    0.45E-03    0.22E-02    0.77E-07
   1      6     8.776    79.963    0.45E-03    0.21E-02    0.76E-07
   2      6     8.776     6.963    0.11E-02    0.51E-03    0.39E-07
 Optimization of the real space projectors (new method)

 maximal supplied QI-value         = 19.84
 optimisation between [QCUT,QGAM] = [  8.73, 17.66] = [ 21.34, 87.33] Ry
 Optimized for a Real-space Cutoff    1.22 Angstroem

   l    n(q)    QCUT    max X(q) W(low)/X(q) W(high)/X(q)  e(spline)
   0      6     8.731   187.594    0.15E-02    0.56E-03    0.90E-07
   0      6     8.731   164.243    0.15E-02    0.56E-03    0.89E-07
   1      6     8.731    67.533    0.37E-03    0.20E-02    0.11E-06
   1      6     8.731    50.729    0.36E-03    0.19E-02    0.10E-06
  PAW_PBE Li 17Jan2003                  :
  PAW_PBE Sb 06Sep2000                  :
  PAW_PBE S 06Sep2000                   :

 POSCAR: Li4 Sb8 S14
  positions in direct lattice
  velocities in cartesian coordinates
 exchange correlation table for  LEXCH =        8
   RHO(1)=    0.500       N(1)  =     2000
   RHO(2)=  100.500       N(2)  =     4000

 ion  position               nearest neighbor table
   1  0.357  0.332  0.124-  25 2.53  19 2.56  14 2.78  18 2.88  22 2.91
   2  0.370  0.835  0.640-  16 2.50  21 2.52  23 2.56  24 3.01   9 3.47
   3  0.630  0.165  0.360-  24 2.50  19 2.52  22 2.56  16 3.01   7 3.47
   4  0.643  0.668  0.876-  15 2.53  21 2.56  18 2.78  14 2.88  23 2.91
   5  0.029  0.947  0.335-  24 2.47  17 2.54  13 2.77  16 2.78  19 3.28  10 3.64
   6  0.123  0.463  0.809-  15 2.52  20 2.52  23 2.59  26 2.89  18 3.15   8 3.74
   7  0.763  0.123  0.045-  19 2.48  22 2.59  14 2.69  13 2.90  21 3.08   3 3.47
   8  0.530  0.249  0.753-  14 2.53  15 2.57  26 2.59  20 3.07  21 3.11   6 3.74
   9  0.237  0.877  0.955-  21 2.48  23 2.59  18 2.69  26 2.90  19 3.08   2 3.47
  10  0.971  0.053  0.665-  16 2.47  20 2.54  26 2.77  24 2.78  21 3.28   5 3.64
  11  0.877  0.537  0.191-  25 2.52  17 2.52  22 2.59  13 2.89  14 3.15  12 3.74
  12  0.470  0.751  0.247-  18 2.53  25 2.57  13 2.59  17 3.07  19 3.11  11 3.74
  13  0.815  0.833  0.132-  12 2.59   5 2.77  11 2.89   7 2.90
  14  0.680  0.372  0.951-   8 2.53   7 2.69   1 2.78   4 2.88  11 3.15
  15  0.463  0.510  0.700-   6 2.52   4 2.53   8 2.57
  16  0.273  0.042  0.530-  10 2.47   2 2.50   5 2.78   3 3.01
  17  0.053  0.673  0.375-  11 2.52   5 2.54  12 3.07
  18  0.320  0.628  0.049-  12 2.53   9 2.69   4 2.78   1 2.88   6 3.15
  19  0.442  0.076  0.170-   7 2.48   3 2.52   1 2.56   9 3.08  12 3.11   5 3.28
  20  0.947  0.327  0.625-   6 2.52  10 2.54   8 3.07
  21  0.558  0.924  0.830-   9 2.48   2 2.52   4 2.56   7 3.08   8 3.11  10 3.28
  22  0.951  0.271  0.230-   3 2.56   7 2.59  11 2.59   1 2.91
  23  0.049  0.729  0.770-   2 2.56   9 2.59   6 2.59   4 2.91
  24  0.727  0.958  0.470-   5 2.47   3 2.50  10 2.78   2 3.01
  25  0.537  0.490  0.300-  11 2.52   1 2.53  12 2.57
  26  0.185  0.167  0.868-   8 2.59  10 2.77   6 2.89   9 2.90

  LATTYP: Found a triclinic cell.
 ALAT       =     8.8956073386
 B/A-ratio  =     1.1262728372
 C/A-ratio  =     1.2151902983
 COS(alpha) =     0.0021464333
 COS(beta)  =     0.0654567689
 COS(gamma) =     0.7356813087

  Lattice vectors:

 A1 = (   1.9876246886,   8.6552580654,  -0.5173836491)
 A2 = (  -4.9655663262,   8.6746206814,  -0.6870821634)
 A3 = (   0.6135396034,   1.2272837101,  10.7224215952)

Analysis of symmetry for initial positions (statically):
 Subroutine PRICEL returns:
 Original cell was already a primitive cell.

 Routine SETGRP: Setting up the symmetry group for a
 triclinic supercell.

 Subroutine GETGRP returns: Found  2 space group operations
 (whereof  2 operations were pure point group operations)
 out of a pool of  2 trial point group operations.

The static configuration has the point symmetry S_2 .

Analysis of symmetry for dynamics (positions and initial velocities):
 Subroutine PRICEL returns:
 Original cell was already a primitive cell.

 Routine SETGRP: Setting up the symmetry group for a
 triclinic supercell.

 Subroutine GETGRP returns: Found  2 space group operations
 (whereof  2 operations were pure point group operations)
 out of a pool of  2 trial point group operations.

The dynamic configuration has the point symmetry S_2 .

 Subroutine INISYM returns: Found  2 space group operations
 (whereof  2 operations are pure point group operations),
 and found     1 'primitive' translations

 KPOINTS: pymatgen with grid density = 807 / numbe

Automatic generation of k-mesh.
Space group operators:
 irot       det(A)        alpha          n_x          n_y          n_z        tau_x        tau_y        tau_z
    1     1.000000     0.000000     1.000000     0.000000     0.000000     0.000000     0.000000     0.000000
    2    -1.000000     0.000000     1.000000     0.000000     0.000000     0.000000     0.000000     0.000000

 Subroutine IBZKPT returns following result:

 Found      6 irreducible k-points:

 Following reciprocal coordinates:
            Coordinates               Weight
  0.000000  0.250000  0.250000      2.000000
  0.333333  0.250000  0.250000      2.000000
 -0.333333  0.250000  0.250000      2.000000
 -0.000000 -0.250000  0.250000      2.000000
  0.333333 -0.250000  0.250000      2.000000
 -0.333333 -0.250000  0.250000      2.000000

 Following cartesian coordinates:
            Coordinates               Weight
  0.000721  0.027137 -0.026463      2.000000
 -0.047223  0.038235 -0.024990      2.000000
  0.048666  0.016038 -0.027936      2.000000
  0.000401 -0.030165 -0.019886      2.000000
 -0.047543 -0.019067 -0.018413      2.000000
  0.048346 -0.041263 -0.021359      2.000000

 SYSTEM =  CIS
 POSCAR =  Li4 Sb8 S14

 Startparameter for this run:
   NWRITE =      2    write-flag & timer
   PREC   = medium    normal or accurate (medium, high low for compatibility)
   ISTART =      0    job   : 0-new  1-cont  2-samecut
   ICHARG =      2    charge: 1-file 2-atom 10-const
   ISPIN  =      1    spin polarized calculation?
   LNONCOLLINEAR =      F non collinear calculations
   LSORBIT =      F    spin-orbit coupling
   INIWAV =      1    electr: 0-lowe 1-rand  2-diag
   LASPH  =      T    aspherical Exc in radial PAW
   METAGGA=      F    non-selfconsistent MetaGGA calc.

 Electronic Relaxation 1
   ENCUT  =  300.0 eV  22.05 Ry    4.70 a.u.   9.82 12.56 15.27*2*pi/ulx,y,z
   ENINI  =  300.0     initial cutoff
   ENAUG  =  380.5 eV  augmentation charge cutoff
   NELM   =     60;   NELMIN=  2; NELMDL= -5     # of ELM steps
   EDIFF  = 0.1E-03   stopping-criterion for ELM
   LREAL  =      T    real-space projection
   NLSPLINE    = F    spline interpolate recip. space projectors
   LCOMPAT=      F    compatible to vasp.4.4
   GGA_COMPAT  = T    GGA compatible to vasp.4.4-vasp.4.6
   LMAXPAW     = -100 max onsite density
   LMAXMIX     =    4 max onsite mixed and CHGCAR
   VOSKOWN=      0    Vosko Wilk Nusair interpolation
   ROPT   =   -0.00200  -0.00200  -0.00200
 Ionic relaxation
   EDIFFG = -.5E-01   stopping-criterion for IOM
   NSW    =     99    number of steps for IOM
   NBLOCK =      1;   KBLOCK =     99    inner block; outer block
   IBRION =      2    ionic relax: 0-MD 1-quasi-New 2-CG
   NFREE  =      1    steps in history (QN), initial steepest desc. (CG)
   ISIF   =      3    stress and relaxation
   IWAVPR =     11    prediction:  0-non 1-charg 2-wave 3-comb
   ISYM   =      2    0-nonsym 1-usesym 2-fastsym
   LCORR  =      T    Harris-Foulkes like correction to forces

   POTIM  = 0.1000    time-step for ionic-motion
   TEIN   =    0.0    initial temperature
   TEBEG  =    0.0;   TEEND  =   0.0 temperature during run
   SMASS  =  -3.00    Nose mass-parameter (am)
   estimated Nose-frequenzy (Omega)   =  0.10E-29 period in steps =****** mass=  -0.111E-26a.u.
   SCALEE = 1.0000    scale energy and forces
   NPACO  =    256;   APACO  = 16.0  distance and # of slots for P.C.
   PSTRESS=    0.0 pullay stress

  Mass of Ions in am
   POMASS =   7.01121.75 32.07
  Ionic Valenz
   ZVAL   =   1.00  5.00  6.00
  Atomic Wigner-Seitz radii
  virtual crystal weights
   VCA    =   1.00  1.00  1.00
   NELECT =     128.0000    total number of electrons
   NUPDOWN=      -1.0000    fix difference up-down

 DOS related values:
   EMIN   =  10.00;   EMAX   =-10.00  energy-range for DOS
   EFERMI =   0.00
   ISMEAR =     0;   SIGMA  =   0.05  broadening in eV -4-tet -1-fermi 0-gaus

 Electronic relaxation 2 (details)
   IALGO  =     38    algorithm
   LDIAG  =      T    sub-space diagonalisation (order eigenvalues)
   LSUBROT=      F    optimize rotation matrix (better conditioning)
   TURBO    =      0    0=normal 1=particle mesh
   IRESTART =      0    0=no restart 2=restart with 2 vectors
   NREBOOT  =      0    no. of reboots
   NMIN     =      0    reboot dimension
   EREF     =   0.00    reference energy to select bands
   IMIX   =      4    mixing-type and parameters
     AMIX     =   0.40;   BMIX     =  1.00
     AMIX_MAG =   1.60;   BMIX_MAG =  1.00
     AMIN     =   0.10
     WC   =   100.;   INIMIX=   1;  MIXPRE=   1;  MAXMIX= -45

 Intra band minimization:
   WEIMIN = 0.0010     energy-eigenvalue tresh-hold
   EBREAK =  0.30E-06  absolut break condition
   DEPER  =   0.30     relativ break condition

   TIME   =   0.40     timestep for ELM

  volume/ion in A,a.u.               =      24.99       168.61
  Fermi-wavevector in a.u.,A,eV,Ry     =   0.952622  1.800195 12.347132  0.907489
  Thomas-Fermi vector in A             =   2.081202

 Write flags
   LWAVE        =      F    write WAVECAR
[...]
  (g-gl).g = 0.182E-03      g.g   = 0.170E-03  gl.gl    = 0.154E-03
 g(Force)  = 0.154E-03   g(Stress)= 0.163E-04 ortho     =-0.117E-04
 gamma     =   1.18082
 trial     =   0.36951
 opt step  =   0.58116  (harmonic =   0.58116) maximal distance =0.00027312
 next E    =  -111.429610   (d E  =  -0.00005)

[...]

 d Force = 0.1814503E-04[-0.261E-05, 0.389E-04]  d Energy = 0.2306921E-04-0.492E-05
 d Force = 0.6953959E-03[ 0.691E-03, 0.700E-03]  d Ewald  =-0.4624521E-01 0.469E-01

[...]

 d Force = 0.2184183E-07[ 0.135E-07, 0.301E-07]  d Energy = 0.2013621E-08 0.198E-07
 d Force =-0.7966718E-05[-0.797E-05,-0.797E-05]  d Ewald  = 0.5335268E-03-0.541E-03

[...]

 d Force = 0.2600711E-04[ 0.714E-06, 0.513E-04]  d Energy = 0.2360235E-04 0.240E-05
 d Force =-0.1385333E-01[-0.139E-01,-0.138E-01]  d Ewald  =-0.7149603E-01 0.576E-01

 Conjugate gradient step on ions:
 trial-energy change:   -0.000024  1 .order   -0.000028   -0.000054   -0.000002
  (g-gl).g = 0.150E-03      g.g   = 0.266E-03  gl.gl    = 0.224E-03
 g(Force)  = 0.258E-03   g(Stress)= 0.783E-05 ortho     = 0.400E-05
 gamma     =   0.67001
 trial     =   0.20212
 opt step  =   0.20886  (harmonic =   0.20886) maximal distance =0.00013573
 next E    =  -111.429663   (d E  =  -0.00003)

[...]

 d Force =-0.1357775E-06[-0.295E-06, 0.238E-07]  d Energy =-0.1006410E-06-0.351E-07
 d Force =-0.4624525E-03[-0.462E-03,-0.462E-03]  d Ewald  =-0.2386037E-02 0.192E-02

[...]

 Conjugate gradient step on ions:
 trial-energy change:   -0.000026  1 .order   -0.000024   -0.000034   -0.000013
  (g-gl).g = 0.244E-03      g.g   = 0.230E-03  gl.gl    = 0.266E-03
 g(Force)  = 0.215E-03   g(Stress)= 0.153E-04 ortho     =-0.401E-04
 gamma     =   0.91992
 trial     =   0.17826
 opt step  =   0.28872  (harmonic =   0.28872) maximal distance =0.00022680
 next E    =  -111.429686   (d E  =  -0.00003)

[...]

 d Force = 0.1247183E-05[-0.573E-05, 0.823E-05]  d Energy =-0.9205705E-06 0.217E-05
 d Force =-0.6761837E-02[-0.676E-02,-0.676E-02]  d Ewald  =-0.4456789E-01 0.378E-01

[...]

 eigenvalue-minimisations  :   546
 total energy-change (2. order) : 0.1669487E-06  (-0.5695391E-07)
 number of electron     127.9999833 magnetization
 augmentation part      -18.1011308 magnetization

[...]

 d Force = 0.1226451E-05[-0.162E-06, 0.261E-05]  d Energy = 0.1900996E-05-0.675E-06
 d Force = 0.3083516E-02[ 0.308E-02, 0.308E-02]  d Ewald  = 0.2032268E-01-0.172E-01

[...]

 Broyden mixing:
  rms(total) = 0.40433E-03    rms(broyden)= 0.40404E-03
  rms(prec ) = 0.47586E-03
  weight for this iteration     100.00

[...]

--------------------------------------- Iteration     17(   2)  ---------------------------------------

 eigenvalue-minimisations  :   546
 total energy-change (2. order) :-0.4506073E-06  (-0.7007003E-06)
 number of electron     127.9999833 magnetization
 augmentation part      -18.1011156 magnetization

 Free energy of the ion-electron system (eV)
  alpha Z        PSCENC =        52.65545445
  Ewald energy   TEWEN  =     -4385.14966035
  -Hartree energ DENC   =      -960.91752799
  -exchange      EXHF   =         0.00000000
  -V(xc)+E(xc)   XCENC  =      -208.63352031
  PAW double counting   =      9867.08703944    -9370.72763714
  entropy T*S    EENTRO =        -0.00000000
  eigenvalues    EBANDS =      -201.95653358
  atomic energy  EATOM  =      5096.21268456
  Solvation  Ediel_sol  =         0.00000000
  free energy    TOTEN  =      -111.42970092 eV

  energy without entropy =     -111.42970092  energy(sigma->0) =     -111.42970092

 average (electrostatic) potential at core
  the test charge radii are     0.9748  1.1712  0.9698
  (the norm of the test charge is              1.0000)
       1 -26.1759       2 -26.2550       3 -26.2550       4 -26.1759       5 -89.2994
       6 -89.1953       7 -89.2448       8 -89.3082       9 -89.2448      10 -89.2994
      11 -89.1953      12 -89.3082      13 -87.3511      14 -87.2167      15 -87.0719
      16 -87.0686      17 -87.3411      18 -87.2167      19 -86.9739      20 -87.3411
      21 -86.9739      22 -87.1663      23 -87.1663      24 -87.0686      25 -87.0719
      26 -87.3511

 E-fermi :   4.0167     XC(G=0):  -8.6433     alpha+bet : -9.7205

[...]

 k-point     6 :      -0.3333   -0.2500    0.2500
  band No.  band energies     occupation
      1      -9.8349      2.00000
      2      -9.5724      2.00000
      3      -9.4022      2.00000
      4      -9.1808      2.00000
      5      -8.9587      2.00000
      6      -8.8239      2.00000
      7      -8.4208      2.00000
      8      -8.3937      2.00000
      9      -8.3133      2.00000
     10      -8.2002      2.00000
     11      -8.1530      2.00000
     12      -8.1163      2.00000
     13      -8.0376      2.00000
     14      -8.0026      2.00000
     15      -5.2529      2.00000
     16      -5.1127      2.00000
     17      -4.8459      2.00000
     18      -4.7380      2.00000
     19      -4.2387      2.00000
     20      -4.0335      2.00000
     21      -3.8795      2.00000
     22      -3.5307      2.00000
     23      -1.2969      2.00000
     24      -1.0909      2.00000
     25      -0.7910      2.00000
     26      -0.6388      2.00000
     27      -0.5048      2.00000
     28      -0.3851      2.00000
     29      -0.1191      2.00000
     30      -0.0244      2.00000
     31      -0.0217      2.00000
     32       0.2846      2.00000
     33       0.3336      2.00000
     34       0.4834      2.00000
     35       0.5907      2.00000
     36       0.6844      2.00000
     37       0.7619      2.00000
     38       0.9035      2.00000
     39       1.0210      2.00000
     40       1.0278      2.00000
     41       1.0866      2.00000
     42       1.2134      2.00000
     43       1.2491      2.00000
     44       1.4455      2.00000
     45       1.4667      2.00000
     46       1.6148      2.00000
     47       1.7030      2.00000
     48       1.7698      2.00000
     49       1.9488      2.00000
     50       2.0425      2.00000
     51       2.0955      2.00000
     52       2.2554      2.00000
     53       2.3732      2.00000
     54       2.4104      2.00000
     55       2.5139      2.00000
     56       2.5638      2.00000
     57       2.6788      2.00000
     58       2.7168      2.00000
     59       2.8990      2.00000
     60       2.9792      2.00000
[...]
     70       6.0191      0.00000
     71       6.1830      0.00000
     72       6.1987      0.00000
     73       6.4441      0.00000
     74       6.6204      0.00000
     75       6.7585      0.00000
     76       6.8802      0.00000
     77       6.9876      0.00000
     78       7.0949      0.00000
     79       7.1653      0.00000
     80       7.2548      0.00000
     81       7.4796      0.00000
     82       7.6826      0.00000
     83       7.8898      0.00000
     84       8.0028      0.00000

 soft charge-density along one line, spin component           1
         0         1         2         3         4         5         6         7         8         9
 total charge-density along one line

------------------------ aborting loop because EDIFF is reached ----------------------------------------

[...]

  FORCE on cell =-STRESS in cart. coord.  units (eV):
  Direction    XX          YY          ZZ          XY          YZ          ZX
  Alpha Z    52.65545    52.65545    52.65545
  Ewald   -1274.05174 -1398.81424 -1712.29724    33.12532  -139.07900   107.35879
  Hartree   439.20973   362.36874   159.35294    16.79001   -89.75586    64.91733
  E(xc)    -461.86548  -461.23437  -462.47377     0.13415    -0.04240     0.93168
  Local   -1454.00238 -1253.12676  -749.59628   -45.93337   224.40851  -165.12920
  n-local  1685.88685  1680.02996  1687.97069    -1.00631    -0.42727    -6.84567
  augment  -383.36667  -382.95277  -385.42026     0.47289    -0.43403     1.86341
  Kinetic  1395.29050  1401.02512  1409.87593    -3.59963     5.36525    -3.13349
  Fock        0.00000     0.00000     0.00000     0.00000     0.00000     0.00000
  Total      -0.24373    -0.04887     0.06747    -0.01693     0.03520    -0.03714
  in kB      -0.60092    -0.12049     0.16635    -0.04175     0.08678    -0.09158

 VOLUME and BASIS-vectors are now :
  energy-cutoff  :      300.00
  volume of cell :      649.84
      direct lattice vectors                 reciprocal lattice vectors
    -6.953140524  0.019844058 -0.169448929    -0.143832425  0.033278624  0.004411059
     1.987024421  8.656582972 -0.517024516     0.000647705  0.114584416 -0.013158932
    -0.613028356 -1.228087166-10.724025131     0.002241450 -0.006050152 -0.092683852

  length of vectors
     6.955233272  8.896741490 10.811508538     0.147697972  0.115339349  0.092908153

 FORCES acting on ions
    electron-ion (+dipol)            ewald-force                    non-local-force                 convergence-correction
   -.708E+01 0.983E+00 0.375E+01   0.642E+01 -.103E+01 -.430E+01   0.661E+00 0.439E-01 0.548E+00   0.112E-04 -.408E-04 0.219E-04
   0.543E+01 0.894E+01 -.128E+02   -.490E+01 -.825E+01 0.122E+02   -.509E+00 -.701E+00 0.672E+00   -.471E-04 0.292E-04 0.502E-04
   -.543E+01 -.894E+01 0.128E+02   0.490E+01 0.825E+01 -.122E+02   0.509E+00 0.701E+00 -.672E+00   0.471E-04 -.292E-04 -.502E-04
   0.708E+01 -.983E+00 -.375E+01   -.642E+01 0.103E+01 0.430E+01   -.661E+00 -.439E-01 -.548E+00   -.112E-04 0.408E-04 -.219E-04
   0.165E+02 -.267E+02 0.121E+02   -.210E+02 0.345E+02 -.696E+01   0.457E+01 -.778E+01 -.515E+01   -.389E-03 0.543E-04 0.399E-04
   -.101E+02 -.129E+02 -.727E+01   0.115E+02 0.102E+02 -.284E+01   -.141E+01 0.272E+01 0.101E+02   0.285E-03 -.389E-03 -.275E-03
   0.245E+02 -.175E+01 -.849E+01   -.302E+02 -.125E+01 0.157E+02   0.564E+01 0.298E+01 -.718E+01   -.105E-03 -.135E-03 0.583E-03
   0.158E+02 -.749E+01 -.572E+02   -.192E+02 0.205E+01 0.646E+02   0.335E+01 0.541E+01 -.733E+01   -.444E-03 -.215E-03 -.103E-03
   -.245E+02 0.175E+01 0.849E+01   0.302E+02 0.125E+01 -.157E+02   -.564E+01 -.298E+01 0.718E+01   0.105E-03 0.135E-03 -.583E-03
   -.165E+02 0.267E+02 -.121E+02   0.210E+02 -.345E+02 0.696E+01   -.457E+01 0.778E+01 0.515E+01   0.389E-03 -.543E-04 -.399E-04
   0.101E+02 0.129E+02 0.727E+01   -.115E+02 -.102E+02 0.284E+01   0.141E+01 -.272E+01 -.101E+02   -.285E-03 0.389E-03 0.275E-03
   -.158E+02 0.749E+01 0.572E+02   0.192E+02 -.205E+01 -.646E+02   -.335E+01 -.541E+01 0.733E+01   0.444E-03 0.215E-03 0.103E-03
   0.170E+02 -.295E+01 -.250E+02   -.184E+02 0.340E+01 0.278E+02   0.137E+01 -.455E+00 -.276E+01   -.299E-03 0.585E-03 0.626E-03
   -.820E+00 -.399E+02 0.882E+01   0.137E+01 0.431E+02 -.104E+02   -.550E+00 -.319E+01 0.155E+01   -.420E-03 -.207E-03 0.332E-04
   0.322E+02 -.566E+02 -.892E+02   -.337E+02 0.598E+02 0.918E+02   0.145E+01 -.325E+01 -.264E+01   -.115E-03 0.168E-03 0.572E-03
   0.444E+02 -.205E+02 -.268E+02   -.479E+02 0.211E+02 0.279E+02   0.351E+01 -.589E+00 -.102E+01   -.742E-03 -.170E-03 0.103E-02
   0.227E+02 0.555E+02 0.852E+02   -.244E+02 -.575E+02 -.895E+02   0.164E+01 0.204E+01 0.429E+01   -.340E-03 0.180E-03 -.414E-03
   0.820E+00 0.399E+02 -.882E+01   -.137E+01 -.431E+02 0.104E+02   0.550E+00 0.319E+01 -.155E+01   0.420E-03 0.207E-03 -.332E-04
   -.417E+02 -.200E+02 0.567E+02   0.442E+02 0.206E+02 -.585E+02   -.256E+01 -.602E+00 0.184E+01   0.812E-03 -.104E-03 -.198E-03
   -.227E+02 -.555E+02 -.852E+02   0.244E+02 0.575E+02 0.895E+02   -.164E+01 -.204E+01 -.429E+01   0.340E-03 -.180E-03 0.414E-03
   0.417E+02 0.200E+02 -.567E+02   -.442E+02 -.206E+02 0.585E+02   0.256E+01 0.602E+00 -.184E+01   -.812E-03 0.104E-03 0.198E-03
   0.429E+02 -.447E+01 0.656E+02   -.452E+02 0.338E+01 -.680E+02   0.225E+01 0.110E+01 0.244E+01   -.323E-03 -.153E-03 -.146E-03
   -.429E+02 0.447E+01 -.656E+02   0.452E+02 -.338E+01 0.680E+02   -.225E+01 -.110E+01 -.244E+01   0.323E-03 0.153E-03 0.146E-03
   -.444E+02 0.205E+02 0.268E+02   0.479E+02 -.211E+02 -.279E+02   -.351E+01 0.589E+00 0.102E+01   0.742E-03 0.170E-03 -.103E-02
   -.322E+02 0.566E+02 0.892E+02   0.337E+02 -.598E+02 -.918E+02   -.145E+01 0.325E+01 0.264E+01   0.115E-03 -.168E-03 -.572E-03
   -.170E+02 0.295E+01 0.250E+02   0.184E+02 -.340E+01 -.278E+02   -.137E+01 0.455E+00 0.276E+01   0.299E-03 -.585E-03 -.626E-03
   0.358E-12 -.111E-10 0.393E-10   -.711E-14 0.289E-13 -.355E-14   -.888E-15 -.111E-14 0.000E+00   0.555E-13 -.127E-11 0.288E-12

 POSITION                                       TOTAL-FORCE (eV/Angst)
     -1.90029      2.72802     -1.56411        -0.000063     -0.000439      0.000522
     -1.30389      6.44555     -7.35646         0.019496     -0.009568     -0.008996
     -4.27525      1.00279     -4.05403        -0.019496      0.009568      0.008996
     -3.67885      4.72032     -9.84639         0.000063      0.000439     -0.000522
      1.47532      7.78513     -4.08875         0.015134      0.011002     -0.014776
     -0.43055      3.02010     -8.93826        -0.018197      0.018982     -0.005497
     -5.09224      1.02197     -0.67942         0.008517     -0.021948      0.012993
     -3.64968      1.23699     -8.29667         0.003532     -0.029659      0.027668
     -0.48690      6.42637    -10.73108        -0.008517      0.021948     -0.012993
     -7.05446     -0.33679     -7.32175        -0.015134     -0.011002      0.014776
     -5.14859      4.42824     -2.47223         0.018197     -0.018982      0.005497
     -1.92946      6.21135     -3.11383        -0.003532      0.029659     -0.027668
     -4.09050      7.06843     -1.98004        -0.000262     -0.004002     -0.000499
     -4.56979      2.06210    -10.50766         0.000113     -0.000021     -0.001483
     -2.63641      3.56114     -7.84968         0.001321      0.000306     -0.001830
     -2.13671     -0.27886     -5.74907         0.001813      0.001662     -0.006917
      0.73798      5.36897     -4.37388        -0.001690     -0.001143     -0.001285
     -1.00935      5.38624     -0.90284        -0.000113      0.000021      0.001483
     -3.02970      0.45760     -1.93516        -0.009775      0.000363     -0.000852
     -6.31712      2.07937     -7.03662         0.001690      0.001143      0.001285
     -2.54945      6.99074     -9.47534         0.009775     -0.000363      0.000852
     -6.21231      2.08072     -2.76633        -0.003531      0.000528      0.001679
      0.63316      5.36762     -8.64417         0.003531     -0.000528     -0.001679
     -3.44244      7.72720     -5.66143        -0.001813     -0.001662      0.006917
     -2.94273      3.88720     -3.56082        -0.001321     -0.000306      0.001830
     -1.48865      0.37991     -9.43046         0.000262      0.004002      0.000499
    total drift:                                0.000000     -0.000000      0.000000

  FREE ENERGIE OF THE ION-ELECTRON SYSTEM (eV)
  free  energy   TOTEN  =      -111.42970092 eV

  energy  without entropy=     -111.42970092  energy(sigma->0) =     -111.42970092

 d Force = 0.1767249E-04[ 0.290E-05, 0.324E-04]  d Energy = 0.1622234E-04 0.145E-05
 d Force =-0.1764816E-01[-0.177E-01,-0.176E-01]  d Ewald  =-0.4629668E-01 0.286E-01

 Conjugate gradient step on ions:
 trial-energy change:   -0.000016  1 .order   -0.000018   -0.000034   -0.000003
  (g-gl).g = 0.127E-03      g.g   = 0.177E-03  gl.gl    = 0.230E-03
 g(Force)  = 0.169E-03   g(Stress)= 0.806E-05 ortho     = 0.678E-06
 gamma     =   0.55360
 trial     =   0.19027
 opt step  =   0.20865  (harmonic =   0.20865) maximal distance =0.00013002
 next E    =  -111.429703   (d E  =  -0.00002)

 reached required accuracy - stopping structural energy minimisation

 total charge

# of ion       s       p       d       tot
    1        0.061   0.101   0.000   0.162
    2        0.067   0.111   0.000   0.178
    3        0.067   0.111   0.000   0.178
    4        0.061   0.101   0.000   0.162
    5        1.287   0.927   0.068   2.282
    6        1.287   0.936   0.071   2.294
    7        1.299   0.912   0.067   2.279
    8        1.299   0.906   0.067   2.273
    9        1.299   0.912   0.067   2.279
   10        1.287   0.927   0.068   2.282
   11        1.287   0.936   0.071   2.294
   12        1.299   0.906   0.067   2.273
   13        1.360   2.329   0.000   3.689
   14        1.353   2.343   0.000   3.696
   15        1.354   2.346   0.000   3.700
   16        1.351   2.350   0.000   3.701
   17        1.365   2.313   0.000   3.678
   18        1.353   2.343   0.000   3.696
   19        1.348   2.365   0.000   3.713
   20        1.365   2.313   0.000   3.678
   21        1.348   2.365   0.000   3.713
   22        1.353   2.342   0.000   3.695
   23        1.353   2.342   0.000   3.695
   24        1.351   2.350   0.000   3.701
   25        1.354   2.346   0.000   3.700
   26        1.360   2.329   0.000   3.689
tot         29.571  40.564   0.547  70.681