 vasp.5.4.4.18Apr17-6-g9f103f2a35 (build Oct 27 2022 13:04:57) complex

 executed on             LinuxIFC date 2024.06.29  06:14:00

 INCAR:
 POTCAR:    PAW_PBE Na 08Apr2002
 POTCAR:    PAW_PBE Ga 08Apr2002
 POTCAR:    PAW_PBE Se 06Sep2000

 POTCAR:    PAW_PBE Na 08Apr2002
   VRHFIN =Na: s1p0

   TITEL  = PAW_PBE Na 08Apr2002
   POMASS =   22.990; ZVAL   =    1.000    mass and valenz
   ENMAX  =  101.968; ENMIN  =   76.476 eV

 POTCAR:    PAW_PBE Ga 08Apr2002
   VRHFIN =Ga: s2p1

   TITEL  = PAW_PBE Ga 08Apr2002
   POMASS =   69.723; ZVAL   =    3.000    mass and valenz
   ENMAX  =  134.678; ENMIN  =  101.009 eV

 POTCAR:    PAW_PBE Se 06Sep2000
   VRHFIN =Se: s2p4

   TITEL  = PAW_PBE Se 06Sep2000
   POMASS =   78.960; ZVAL   =    6.000    mass and valenz
   ENMAX  =  211.555; ENMIN  =  158.666 eV

 Optimization of the real space projectors (new method)

 maximal supplied QI-value         = 17.01
 optimisation between [QCUT,QGAM] = [  8.84, 17.69] = [ 21.90, 87.61] Ry
 Optimized for a Real-space Cutoff    1.22 Angstroem

   l    n(q)    QCUT    max X(q) W(low)/X(q) W(high)/X(q)  e(spline)
   0      6     8.844    45.123    0.62E-03    0.70E-03    0.80E-07
   0      6     8.844    12.364    0.51E-03    0.48E-03    0.55E-07
   1      6     8.844     8.302    0.36E-03    0.27E-03    0.23E-07
 Optimization of the real space projectors (new method)

[...]

   l    n(q)    QCUT    max X(q) W(low)/X(q) W(high)/X(q)  e(spline)
   0      7     8.761    81.156    0.11E-03    0.37E-03    0.87E-07
   0      7     8.761    65.205    0.12E-03    0.37E-03    0.87E-07
   1      7     8.761    44.874    0.85E-03    0.88E-03    0.78E-07
   1      7     8.761    25.010    0.87E-03    0.93E-03    0.76E-07
   2      6     8.761     5.217    0.35E-03    0.49E-03    0.48E-07
 Optimization of the real space projectors (new method)

 maximal supplied QI-value         = 17.95
 optimisation between [QCUT,QGAM] = [  8.80, 17.59] = [ 21.67, 86.68] Ry
 Optimized for a Real-space Cutoff    1.19 Angstroem

   l    n(q)    QCUT    max X(q) W(low)/X(q) W(high)/X(q)  e(spline)
   0      6     8.797   133.320    0.14E-02    0.11E-02    0.95E-07
   0      6     8.797   111.601    0.15E-02    0.12E-02    0.10E-06
   1      6     8.797    47.222    0.19E-02    0.96E-03    0.11E-06
   1      6     8.797    33.775    0.19E-02    0.99E-03    0.11E-06
   2      5     8.797     3.720    0.16E-02    0.14E-02    0.40E-07
  PAW_PBE Na 08Apr2002                  :
  PAW_PBE Ga 08Apr2002                  :
  PAW_PBE Se 06Sep2000                  :

 POSCAR: Na4 Ga4 Se8
  positions in direct lattice
 exchange correlation table for  LEXCH =        8
   RHO(1)=    0.500       N(1)  =     2000
   RHO(2)=  100.500       N(2)  =     4000

 ion  position               nearest neighbor table
   1  0.118  0.917  0.378-  12 2.43   9 2.43  15 2.44  16 2.45   6 3.74   2 3.81   2 3.81   4 3.82
                             4 3.82
   2  0.618  0.083  0.622-  11 2.43  10 2.43  16 2.44  15 2.45   5 3.74   1 3.81   1 3.81   3 3.82
                             3 3.82
   3  0.618  0.583  0.878-  10 2.43  11 2.43  13 2.44  14 2.45   8 3.74   4 3.81   4 3.81   2 3.82
                             2 3.82
   4  0.118  0.417  0.122-   9 2.43  12 2.43  14 2.44  13 2.45   7 3.74   3 3.81   3 3.81   1 3.82
                             1 3.82
   5  0.621  0.574  0.374-  10 2.25  14 2.26  15 2.26   9 2.26   2 3.74
   6  0.121  0.426  0.626-   9 2.25  13 2.26  16 2.26  10 2.26   1 3.74
   7  0.121  0.926  0.874-  12 2.25  16 2.26  13 2.26  11 2.26   4 3.74
   8  0.621  0.074  0.126-  11 2.25  15 2.26  14 2.26  12 2.26   3 3.74
   9  0.985  0.564  0.386-   6 2.25   5 2.26   4 2.43   1 2.43
  10  0.485  0.436  0.614-   5 2.25   6 2.26   3 2.43   2 2.43
  11  0.485  0.936  0.886-   8 2.25   7 2.26   2 2.43   3 2.43
  12  0.985  0.064  0.114-   7 2.25   8 2.26   1 2.43   4 2.43
  13  0.010  0.595  0.861-   6 2.26   7 2.26   3 2.44   4 2.45
  14  0.510  0.405  0.139-   5 2.26   8 2.26   4 2.44   3 2.45
  15  0.510  0.905  0.361-   8 2.26   5 2.26   1 2.44   2 2.45
  16  0.010  0.095  0.639-   7 2.26   6 2.26   2 2.44   1 2.45

  LATTYP: Found a simple orthorhombic cell.
 ALAT       =     6.2046547700
 B/A-ratio  =     1.0468935019
 C/A-ratio  =     1.2661476506

  Lattice vectors:

 A1 = (   6.2046547700,   0.0000000000,   0.0000000000)
 A2 = (   0.0000000000,   6.4956127600,   0.0000000000)
 A3 = (   0.0000000000,   0.0000000000,   7.8560090600)

Analysis of symmetry for initial positions (statically):
 Subroutine PRICEL returns:
 Original cell was already a primitive cell.

 Routine SETGRP: Setting up the symmetry group for a
 simple orthorhombic supercell.

 Subroutine GETGRP returns: Found  4 space group operations
 (whereof  1 operations were pure point group operations)
 out of a pool of  8 trial point group operations.

The static configuration has the point symmetry C_1 .
 The point group associated with its full space group is C_2v.

Analysis of symmetry for dynamics (positions and initial velocities):
 Subroutine PRICEL returns:
 Original cell was already a primitive cell.

 Routine SETGRP: Setting up the symmetry group for a
 simple orthorhombic supercell.

 Subroutine GETGRP returns: Found  4 space group operations
 (whereof  1 operations were pure point group operations)
 out of a pool of  8 trial point group operations.

The dynamic configuration has the point symmetry C_1 .
 The point group associated with its full space group is C_2v.

 Subroutine INISYM returns: Found  4 space group operations
 (whereof  1 operations are pure point group operations),
 and found     1 'primitive' translations

 KPOINTS: pymatgen with grid density = 807 / numbe

Automatic generation of k-mesh.
Space group operators:
 irot       det(A)        alpha          n_x          n_y          n_z        tau_x        tau_y        tau_z
    1     1.000000     0.000000     1.000000     0.000000     0.000000     0.000000     0.000000     0.000000
    2    -1.000000   180.000000     0.000000     0.000000     1.000000     0.000000     0.500000     0.500000
    3    -1.000000   179.999999     0.000000     1.000000     0.000000     0.500000     0.500000     0.500000
    4     1.000000   180.000000     1.000000     0.000000     0.000000     0.500000     0.000000     0.000000

 Subroutine IBZKPT returns following result:

 Found      8 irreducible k-points:

 Following reciprocal coordinates:
            Coordinates               Weight
  0.000000  0.000000  0.000000      1.000000
  0.333333  0.000000  0.000000      2.000000
  0.000000  0.333333  0.000000      2.000000
  0.333333  0.333333  0.000000      4.000000
  0.000000  0.000000  0.333333      2.000000
  0.333333  0.000000  0.333333      4.000000
  0.000000  0.333333  0.333333      4.000000
  0.333333  0.333333  0.333333      8.000000

 Following cartesian coordinates:
            Coordinates               Weight
  0.000000  0.000000  0.000000      1.000000
  0.053723  0.000000  0.000000      2.000000
  0.000000  0.051317  0.000000      2.000000
  0.053723  0.051317  0.000000      4.000000
  0.000000  0.000000  0.042430      2.000000
  0.053723  0.000000  0.042430      4.000000
  0.000000  0.051317  0.042430      4.000000
  0.053723  0.051317  0.042430      8.000000

 SYSTEM =  CIS
 POSCAR =  Na4 Ga4 Se8

 Startparameter for this run:
   NWRITE =      2    write-flag & timer
   PREC   = medium    normal or accurate (medium, high low for compatibility)
   ISTART =      0    job   : 0-new  1-cont  2-samecut
   ICHARG =      2    charge: 1-file 2-atom 10-const
   ISPIN  =      1    spin polarized calculation?
   LNONCOLLINEAR =      F non collinear calculations
   LSORBIT =      F    spin-orbit coupling
   INIWAV =      1    electr: 0-lowe 1-rand  2-diag
   LASPH  =      T    aspherical Exc in radial PAW
   METAGGA=      F    non-selfconsistent MetaGGA calc.

 Electronic Relaxation 1
   ENCUT  =  300.0 eV  22.05 Ry    4.70 a.u.   8.76  9.17 11.09*2*pi/ulx,y,z
   ENINI  =  300.0     initial cutoff
   ENAUG  =  446.8 eV  augmentation charge cutoff
   NELM   =     60;   NELMIN=  2; NELMDL= -5     # of ELM steps
   EDIFF  = 0.1E-03   stopping-criterion for ELM
   LREAL  =      T    real-space projection
   NLSPLINE    = F    spline interpolate recip. space projectors
   LCOMPAT=      F    compatible to vasp.4.4
   GGA_COMPAT  = T    GGA compatible to vasp.4.4-vasp.4.6
   LMAXPAW     = -100 max onsite density
   LMAXMIX     =    4 max onsite mixed and CHGCAR
   VOSKOWN=      0    Vosko Wilk Nusair interpolation
   ROPT   =   -0.00200  -0.00200  -0.00200
 Ionic relaxation
   EDIFFG = -.5E-01   stopping-criterion for IOM
   NSW    =     99    number of steps for IOM
   NBLOCK =      1;   KBLOCK =     99    inner block; outer block
   IBRION =      2    ionic relax: 0-MD 1-quasi-New 2-CG
   NFREE  =      1    steps in history (QN), initial steepest desc. (CG)
   ISIF   =      3    stress and relaxation
   IWAVPR =     11    prediction:  0-non 1-charg 2-wave 3-comb
   ISYM   =      2    0-nonsym 1-usesym 2-fastsym
   LCORR  =      T    Harris-Foulkes like correction to forces

   POTIM  = 0.1000    time-step for ionic-motion
   TEIN   =    0.0    initial temperature
   TEBEG  =    0.0;   TEEND  =   0.0 temperature during run
   SMASS  =  -3.00    Nose mass-parameter (am)
   estimated Nose-frequenzy (Omega)   =  0.10E-29 period in steps =****** mass=  -0.880E-27a.u.
   SCALEE = 1.0000    scale energy and forces
   NPACO  =    256;   APACO  = 16.0  distance and # of slots for P.C.
   PSTRESS=    0.0 pullay stress

  Mass of Ions in am
   POMASS =  22.99 69.72 78.96
  Ionic Valenz
   ZVAL   =   1.00  3.00  6.00
  Atomic Wigner-Seitz radii
  virtual crystal weights
   VCA    =   1.00  1.00  1.00
   NELECT =      64.0000    total number of electrons
   NUPDOWN=      -1.0000    fix difference up-down

 DOS related values:
   EMIN   =  10.00;   EMAX   =-10.00  energy-range for DOS
   EFERMI =   0.00
   ISMEAR =     0;   SIGMA  =   0.05  broadening in eV -4-tet -1-fermi 0-gaus

 Electronic relaxation 2 (details)
   IALGO  =     38    algorithm
   LDIAG  =      T    sub-space diagonalisation (order eigenvalues)
   LSUBROT=      F    optimize rotation matrix (better conditioning)
   TURBO    =      0    0=normal 1=particle mesh
   IRESTART =      0    0=no restart 2=restart with 2 vectors
   NREBOOT  =      0    no. of reboots
   NMIN     =      0    reboot dimension
   EREF     =   0.00    reference energy to select bands
   IMIX   =      4    mixing-type and parameters
     AMIX     =   0.40;   BMIX     =  1.00
     AMIX_MAG =   1.60;   BMIX_MAG =  1.00
     AMIN     =   0.10
     WC   =   100.;   INIMIX=   1;  MIXPRE=   1;  MAXMIX= -45

 Intra band minimization:
   WEIMIN = 0.0010     energy-eigenvalue tresh-hold
   EBREAK =  0.60E-06  absolut break condition
   DEPER  =   0.30     relativ break condition

   TIME   =   0.40     timestep for ELM

  volume/ion in A,a.u.               =      19.79       133.54
  Fermi-wavevector in a.u.,A,eV,Ry     =   0.960775  1.815601 12.559376  0.923088
  Thomas-Fermi vector in A             =   2.090089

 Write flags
   LWAVE        =      F    write WAVECAR
   LDOWNSAMPLE  =      F    k-point downsampling of WAVECAR
[...]
   0.181E+02 0.151E+02 0.260E+02   -.198E+02 -.163E+02 -.281E+02   0.149E+01 0.101E+01 0.179E+01   -.117E-02 -.856E-03 -.146E-02
   0.436E+00 0.363E-12 0.290E-04   0.107E-13 -.107E-13 0.711E-14   -.583E+00 0.000E+00 0.000E+00   -.427E-03 0.320E-13 -.237E-13

 POSITION                                       TOTAL-FORCE (eV/Angst)
      0.73097      5.95413      2.96726        -0.114364      0.238698      0.176596
      3.83330      0.54148      4.88875        -0.114364     -0.238698     -0.176596
      3.83330      3.78928      6.89526        -0.114364     -0.238698      0.176596
      0.73097      2.70633      0.96075        -0.114364      0.238698     -0.176596
      3.85541      3.72691      2.93720         0.008021     -0.118900      0.005845
      0.75308      2.76870      4.91881         0.008021      0.118900     -0.005845
      0.75308      6.01651      6.86521         0.008021      0.118900      0.005845
      3.85541      0.47911      0.99080         0.008021     -0.118900     -0.005845
      6.11459      3.66635      3.03607         0.232364     -0.190950     -0.263675
      3.01226      2.82926      4.81994         0.232364      0.190950      0.263675
      3.01226      6.07707      6.96407         0.232364      0.190950     -0.263675
      6.11459      0.41855      0.89194         0.232364     -0.190950      0.263675
      0.06411      3.86649      6.76628        -0.126020     -0.177157      0.318306
      3.16644      2.62912      1.08973        -0.126020      0.177157     -0.318306
      3.16644      5.87693      2.83827        -0.126020      0.177157      0.318306
      0.06411      0.61869      5.01774        -0.126020     -0.177157     -0.318306
    total drift:                               -0.147834      0.000000      0.000029

  FREE ENERGIE OF THE ION-ELECTRON SYSTEM (eV)
  free  energy   TOTEN  =       -50.33287084 eV

  energy  without entropy=      -50.33287084  energy(sigma->0) =      -50.33287084

[...]

 d Force = 0.7947016E-02[-0.101E-02, 0.169E-01]  d Energy = 0.4242853E+01-0.423E+01
 d Force = 0.9362197E+00[ 0.905E+00, 0.968E+00]  d Ewald  =-0.6706815E+02 0.680E+02

 Steepest descent step on ions:
 trial-energy change:   -4.242853  1 .order   -4.356998   -5.371587   -3.342410
  (g-gl).g = 0.537E+01      g.g   = 0.537E+01  gl.gl    = 0.000E+00
 g(Force)  = 0.164E-01   g(Stress)= 0.536E+01 ortho     = 0.000E+00
 gamma     =   0.00000
 trial     =   1.00000
 opt step  =   2.64717  (harmonic =   2.64717) maximal distance =0.00812996
 next E    =   -57.442635   (d E  =  -7.10976)

[...]

 d Force =-0.1729194E-01[-0.329E-01,-0.171E-02]  d Energy = 0.3094787E+01-0.311E+01
 d Force = 0.1442265E+01[ 0.137E+01, 0.152E+01]  d Ewald  =-0.1016910E+03 0.103E+03

[...]

 d Force =-0.5119331E-02[-0.534E-02,-0.490E-02]  d Energy = 0.1795734E-01-0.231E-01
 d Force = 0.1715704E+00[ 0.170E+00, 0.173E+00]  d Ewald  =-0.1274764E+02 0.129E+02

[...]

 d Force = 0.7289648E-03[ 0.720E-03, 0.738E-03]  d Energy = 0.8065365E-03-0.776E-04
 d Force =-0.2355319E-01[-0.236E-01,-0.235E-01]  d Ewald  = 0.1764461E+01-0.179E+01

[...]

 d Force = 0.1128694E+00[ 0.109E+00, 0.117E+00]  d Energy = 0.1130642E+00-0.195E-03
 d Force =-0.3421272E+01[-0.346E+01,-0.338E+01]  d Ewald  =-0.5178728E+01 0.176E+01

 Conjugate gradient step on ions:
 trial-energy change:   -0.113064  1 .order   -0.113786   -0.117950   -0.109622
  (g-gl).g = 0.794E-01      g.g   = 0.798E-01  gl.gl    = 0.537E+01
 g(Force)  = 0.794E-01   g(Stress)= 0.378E-03 ortho     = 0.447E-03
 gamma     =   0.01478
 trial     =   1.47769
 opt step  =   5.91075  (harmonic =  20.92894) maximal distance =0.04523506
 next E    =   -58.779432   (d E  =  -0.83528)

[...]

 d Force = 0.1406185E-01[-0.847E-02, 0.366E-01]  d Energy = 0.2302083E-01-0.896E-02
 d Force =-0.8886225E+01[-0.903E+01,-0.874E+01]  d Ewald  =-0.1245872E+02 0.357E+01

[...]

 Conjugate gradient step on ions:
 trial-energy change:   -0.024937  1 .order   -0.025701   -0.031774   -0.019628
  (g-gl).g = 0.824E-02      g.g   = 0.674E-02  gl.gl    = 0.798E-01
 g(Force)  = 0.254E-02   g(Stress)= 0.420E-02 ortho     =-0.667E-03
 gamma     =   0.10328
 trial     =   4.76327
 opt step  =  12.46103  (harmonic =  12.46103) maximal distance =0.01761727
 next E    =   -58.679696   (d E  =  -0.04156)

[...]

 d Force = 0.3207165E-01[ 0.211E-01, 0.430E-01]  d Energy = 0.3276626E-01-0.695E-03
 d Force =-0.2127903E+01[-0.209E+01,-0.217E+01]  d Ewald  = 0.8086049E+00-0.294E+01

[...]

 d Force =-0.1316473E-01[-0.679E-01, 0.416E-01]  d Energy =-0.2602761E-01 0.129E-01
 d Force =-0.3966765E+01[-0.377E+01,-0.417E+01]  d Ewald  = 0.2737614E+01-0.670E+01

[...]

 d Force = 0.1867724E-01[-0.111E-01, 0.485E-01]  d Energy = 0.3249827E-01-0.138E-01
 d Force = 0.2788548E+01[ 0.290E+01, 0.267E+01]  d Ewald  =-0.2107127E+01 0.490E+01

[...]

 Conjugate gradient step on ions:
 trial-energy change:   -0.021483  1 .order   -0.019723   -0.027093   -0.012353
  (g-gl).g = 0.352E-02      g.g   = 0.385E-02  gl.gl    = 0.633E-02
 g(Force)  = 0.317E-02   g(Stress)= 0.677E-03 ortho     = 0.446E-03
 gamma     =   0.55664
 trial     =   6.61339
 opt step  =   9.36470  (harmonic =  12.15570) maximal distance =0.02892323
 next E    =   -58.764853   (d E  =  -0.02418)

[...]

 d Force = 0.3124112E-02[ 0.198E-02, 0.427E-02]  d Energy = 0.3874698E-02-0.751E-03
 d Force =-0.1090048E+00[-0.112E+00,-0.106E+00]  d Ewald  =-0.2567950E+00 0.148E+00

[...]

 d Force =-0.2923369E-02[-0.980E-02, 0.396E-02]  d Energy =-0.2482806E-02-0.441E-03
 d Force =-0.2342910E+00[-0.246E+00,-0.223E+00]  d Ewald  =-0.4994178E+00 0.265E+00

[...]

 d Force = 0.3478793E-02[ 0.757E-03, 0.620E-02]  d Energy = 0.3223299E-02 0.255E-03
 d Force = 0.1530181E+00[ 0.149E+00, 0.157E+00]  d Ewald  = 0.3158089E+00-0.163E+00

[...]

 eigenvalues of (default mixing * dielectric matrix)
  average eigenvalue GAMMA=   1.4658
  2.0856  1.0071  1.3046

[...]

 eigenvalue-minimisations  :   490
 total energy-change (2. order) : 0.1663549E-04  (-0.9304315E-05)
 number of electron      64.0000547 magnetization
 augmentation part      -10.7740752 magnetization

[...]

 d Force = 0.3202120E-02[ 0.107E-02, 0.533E-02]  d Energy = 0.3728297E-02-0.526E-03
 d Force = 0.2191313E+00[ 0.225E+00, 0.213E+00]  d Ewald  =-0.9581982E+00 0.118E+01

 Conjugate gradient step on ions:
 trial-energy change:   -0.003728  1 .order   -0.003779   -0.006595   -0.000963
  (g-gl).g = 0.118E-02      g.g   = 0.899E-03  gl.gl    = 0.385E-02
 g(Force)  = 0.771E-03   g(Stress)= 0.128E-03 ortho     =-0.888E-04
 gamma     =   0.30619
 trial     =   7.56531
 opt step  =   8.85859  (harmonic =   8.85859) maximal distance =0.01113221
 next E    =   -58.770633   (d E  =  -0.00386)

[...]

 Broyden mixing:
  rms(total) = 0.59477E-02    rms(broyden)= 0.59422E-02
  rms(prec ) = 0.76188E-02
  weight for this iteration     100.00

[...]

--------------------------------------- Iteration     22(   2)  ---------------------------------------

 eigenvalue-minimisations  :   896
 total energy-change (2. order) :-0.1941815E-04  (-0.9485590E-04)
 number of electron      64.0000569 magnetization
 augmentation part      -10.7743015 magnetization

 Free energy of the ion-electron system (eV)
  alpha Z        PSCENC =        89.08855970
  Ewald energy   TEWEN  =     -1851.68011952
  -Hartree energ DENC   =      -473.46530828
  -exchange      EXHF   =         0.00000000
  -V(xc)+E(xc)   XCENC  =      -223.70594157
  PAW double counting   =      3991.99591290    -3639.24891463
  entropy T*S    EENTRO =        -0.00000000
  eigenvalues    EBANDS =      -264.85798380
  atomic energy  EATOM  =      2313.10313368
  Solvation  Ediel_sol  =         0.00000000
  free energy    TOTEN  =       -58.77066152 eV

  energy without entropy =      -58.77066152  energy(sigma->0) =      -58.77066152

 average (electrostatic) potential at core
  the test charge radii are     1.1212  1.2767  1.0808
  (the norm of the test charge is              1.0000)
       1 -42.0106       2 -42.0106       3 -42.0106       4 -42.0106       5 -16.6113
       6 -16.6113       7 -16.6113       8 -16.6113       9 -56.6058      10 -56.6058
      11 -56.6058      12 -56.6058      13 -56.6184      14 -56.6184      15 -56.6184
      16 -56.6184

 E-fermi :   0.5102     XC(G=0):  -7.7998     alpha+bet : -6.8926

[...]

 k-point     8 :       0.3333    0.3333    0.3333
  band No.  band energies     occupation
      1     -11.8353      2.00000
      2     -11.7327      2.00000
      3     -11.4854      2.00000
      4     -11.3752      2.00000
      5     -11.1278      2.00000
      6     -11.1002      2.00000
      7     -11.0612      2.00000
      8     -11.0452      2.00000
      9      -5.4771      2.00000
     10      -5.2659      2.00000
     11      -4.6385      2.00000
     12      -4.4046      2.00000
     13      -2.4614      2.00000
     14      -2.3526      2.00000
     15      -2.1606      2.00000
     16      -2.0846      2.00000
     17      -1.7993      2.00000
     18      -1.7218      2.00000
     19      -1.5518      2.00000
     20      -1.3312      2.00000
     21      -1.2630      2.00000
     22      -1.1214      2.00000
     23      -0.9589      2.00000
     24      -0.8952      2.00000
     25      -0.6963      2.00000
     26      -0.6650      2.00000
     27      -0.3528      2.00000
     28      -0.2880      2.00000
     29      -0.0802      2.00000
     30      -0.0583      2.00000
     31      -0.0241      2.00000
     32       0.0505      2.00000
     33       2.9610      0.00000
     34       2.9912      0.00000
     35       3.3754      0.00000
     36       3.6185      0.00000
     37       4.4881      0.00000
     38       4.6960      0.00000
     39       4.8451      0.00000
     40       5.1195      0.00000
     41       5.2922      0.00000
     42       5.3680      0.00000

 soft charge-density along one line, spin component           1
         0         1         2         3         4         5         6         7         8         9
 total charge-density along one line

------------------------ aborting loop because EDIFF is reached ----------------------------------------

[...]

  FORCE on cell =-STRESS in cart. coord.  units (eV):
  Direction    XX          YY          ZZ          XY          YZ          ZX
  Alpha Z    89.08856    89.08856    89.08856
  Ewald    -615.45078  -642.30649  -593.92541     0.00000     0.00000    -0.00000
  Hartree   164.79364   158.80959   149.99176    -0.00000    -0.00000    -0.00000
  E(xc)    -231.43145  -231.46311  -231.87333    -0.00000    -0.00000    -0.00000
  Local    -408.15108  -379.65739  -403.64981     0.00000    -0.00000     0.00000
  n-local   376.56877   375.54142   380.22873    -0.11806    -0.14048    -0.09641
  augment   -21.02432   -21.39529   -20.06572     0.00000     0.00000    -0.00000
  Kinetic   645.09156   651.30650   629.92670    -0.45769    -0.10621    -0.07367
  Fock        0.00000     0.00000     0.00000     0.00000     0.00000     0.00000
  Total      -0.51509    -0.07622    -0.27852     0.00000     0.00000     0.00000
  in kB      -1.82480    -0.27002    -0.98672     0.00000     0.00000     0.00000

 VOLUME and BASIS-vectors are now :
  energy-cutoff  :      300.00
  volume of cell :      452.25
      direct lattice vectors                 reciprocal lattice vectors
     6.900993737  0.000000000  0.000000000     0.144906667  0.000000000  0.000000000
     0.000000000  7.006143827  0.000000000     0.000000000  0.142731869  0.000000000
     0.000000000  0.000000000  9.353769145     0.000000000  0.000000000  0.106908775

  length of vectors
     6.900993737  7.006143827  9.353769145     0.144906667  0.142731869  0.106908775

 FORCES acting on ions
    electron-ion (+dipol)            ewald-force                    non-local-force                 convergence-correction
   0.289E-01 -.260E+01 -.351E+00   0.115E+00 0.213E+01 0.286E+00   -.164E+00 0.471E+00 0.855E-01   0.463E-04 0.274E-03 0.842E-03
   0.289E-01 0.260E+01 0.351E+00   0.115E+00 -.213E+01 -.286E+00   -.164E+00 -.471E+00 -.855E-01   0.463E-04 -.274E-03 -.842E-03
   0.289E-01 0.260E+01 -.351E+00   0.115E+00 -.213E+01 0.286E+00   -.164E+00 -.471E+00 0.855E-01   0.463E-04 -.274E-03 0.842E-03
   0.289E-01 -.260E+01 0.351E+00   0.115E+00 0.213E+01 -.286E+00   -.164E+00 0.471E+00 -.855E-01   0.463E-04 0.274E-03 -.842E-03
   0.771E+00 0.205E+01 0.585E+00   -.725E+00 -.184E+01 -.577E+00   -.375E-01 -.181E+00 -.374E-01   -.611E-02 -.634E-03 -.338E-02
   0.771E+00 -.205E+01 -.585E+00   -.725E+00 0.184E+01 0.577E+00   -.375E-01 0.181E+00 0.374E-01   -.611E-02 0.634E-03 0.338E-02
   0.771E+00 -.205E+01 0.585E+00   -.725E+00 0.184E+01 -.577E+00   -.375E-01 0.181E+00 -.374E-01   -.611E-02 0.634E-03 -.338E-02
   0.771E+00 0.205E+01 -.585E+00   -.725E+00 -.184E+01 0.577E+00   -.375E-01 -.181E+00 0.374E-01   -.611E-02 -.634E-03 0.338E-02
   -.191E+02 -.732E+01 0.275E+02   0.205E+02 0.779E+01 -.296E+02   -.141E+01 -.485E+00 0.207E+01   0.173E-02 0.119E-01 0.617E-02
   -.191E+02 0.732E+01 -.275E+02   0.205E+02 -.779E+01 0.296E+02   -.141E+01 0.485E+00 -.207E+01   0.173E-02 -.119E-01 -.617E-02
   -.191E+02 0.732E+01 0.275E+02   0.205E+02 -.779E+01 -.296E+02   -.141E+01 0.485E+00 0.207E+01   0.173E-02 -.119E-01 0.617E-02
   -.191E+02 -.732E+01 -.275E+02   0.205E+02 0.779E+01 0.296E+02   -.141E+01 -.485E+00 -.207E+01   0.173E-02 0.119E-01 -.617E-02
   0.186E+02 0.180E+02 -.270E+02   -.199E+02 -.190E+02 0.289E+02   0.122E+01 0.101E+01 -.187E+01   0.118E-02 -.741E-02 0.386E-02
   0.186E+02 -.180E+02 0.270E+02   -.199E+02 0.190E+02 -.289E+02   0.122E+01 -.101E+01 0.187E+01   0.118E-02 0.741E-02 -.386E-02
   0.186E+02 -.180E+02 -.270E+02   -.199E+02 0.190E+02 0.289E+02   0.122E+01 -.101E+01 -.187E+01   0.118E-02 0.741E-02 0.386E-02
   0.186E+02 0.180E+02 0.270E+02   -.199E+02 -.190E+02 -.289E+02   0.122E+01 0.101E+01 0.187E+01   0.118E-02 -.741E-02 -.386E-02
   0.154E+01 0.131E-11 0.179E-05   -.107E-13 0.355E-14 0.178E-13   -.159E+01 0.000E+00 0.000E+00   -.126E-01 -.520E-12 -.660E-12

 POSITION                                       TOTAL-FORCE (eV/Angst)
      0.76724      6.46828      3.54732        -0.016523     -0.002819      0.020998
      4.21773      0.53787      5.80645        -0.016523      0.002819     -0.020998
      4.21773      4.04094      8.22420        -0.016523      0.002819      0.020998
      0.76724      2.96521      1.12957        -0.016523     -0.002819     -0.020998
      4.28378      3.91472      3.50013         0.006699      0.035402     -0.032573
      0.83328      3.09142      5.85364         0.006699     -0.035402      0.032573
      0.83328      6.59450      8.17702         0.006699     -0.035402     -0.032573
      4.28378      0.41165      1.17675         0.006699      0.035402      0.032573
      6.72760      3.75704      3.73794         0.010185     -0.004521     -0.025256
      3.27711      3.24911      5.61583         0.010185      0.004521      0.025256
      3.27711      6.75218      8.41483         0.010185      0.004521     -0.025256
      6.72760      0.25397      0.93894         0.010185     -0.004521      0.025256
      0.19461      4.22979      7.92058        -0.000361     -0.024626     -0.004136
      3.64511      2.77635      1.43319        -0.000361      0.024626      0.004136
      3.64511      6.27942      3.24369        -0.000361      0.024626     -0.004136
      0.19461      0.72672      6.11008        -0.000361     -0.024626      0.004136
    total drift:                               -0.060317      0.000000      0.000002

  FREE ENERGIE OF THE ION-ELECTRON SYSTEM (eV)
  free  energy   TOTEN  =       -58.77066152 eV

  energy  without entropy=      -58.77066152  energy(sigma->0) =      -58.77066152

 d Force = 0.1824423E-03[ 0.182E-03, 0.183E-03]  d Energy = 0.1608684E-03 0.216E-04
 d Force = 0.3858384E-01[ 0.388E-01, 0.384E-01]  d Ewald  =-0.1613695E+00 0.200E+00

 reached required accuracy - stopping structural energy minimisation

 total charge

# of ion       s       p       d       tot
    1        0.056   0.038   0.000   0.095
    2        0.057   0.038   0.000   0.094
    3        0.056   0.038   0.000   0.095
    4        0.057   0.038   0.000   0.095
    5        1.040   1.054   0.168   2.263
    6        1.041   1.054   0.168   2.263
    7        1.041   1.052   0.169   2.262
    8        1.041   1.053   0.169   2.263
    9        1.446   2.422   0.015   3.883
   10        1.446   2.421   0.015   3.882
   11        1.446   2.421   0.015   3.883
   12        1.446   2.422   0.015   3.883
   13        1.448   2.415   0.015   3.878
   14        1.448   2.415   0.015   3.878
   15        1.447   2.414   0.015   3.877
   16        1.448   2.414   0.015   3.877
tot         15.965  23.709   0.797  40.471