 vasp.5.4.4.18Apr17-6-g9f103f2a35 (build Oct 27 2022 13:04:57) complex

 executed on             LinuxIFC date 2024.06.29  02:49:13

 INCAR:
 POTCAR:    PAW_PBE Na 08Apr2002
 POTCAR:    PAW_PBE Sb 06Sep2000
 POTCAR:    PAW_PBE S 06Sep2000

 POTCAR:    PAW_PBE Na 08Apr2002
   VRHFIN =Na: s1p0

   TITEL  = PAW_PBE Na 08Apr2002
   POMASS =   22.990; ZVAL   =    1.000    mass and valenz
   ENMAX  =  101.968; ENMIN  =   76.476 eV

 POTCAR:    PAW_PBE Sb 06Sep2000
   VRHFIN =Sb: s2p3

   TITEL  = PAW_PBE Sb 06Sep2000
   POMASS =  121.750; ZVAL   =    5.000    mass and valenz
   ENMAX  =  172.069; ENMIN  =  129.052 eV

 POTCAR:    PAW_PBE S 06Sep2000
   VRHFIN =S : s2p4

   TITEL  = PAW_PBE S 06Sep2000
   POMASS =   32.066; ZVAL   =    6.000    mass and valenz
   ENMAX  =  258.689; ENMIN  =  194.016 eV

 Optimization of the real space projectors (new method)

 maximal supplied QI-value         = 17.01
 optimisation between [QCUT,QGAM] = [  8.84, 17.69] = [ 21.90, 87.61] Ry
 Optimized for a Real-space Cutoff    1.22 Angstroem

   l    n(q)    QCUT    max X(q) W(low)/X(q) W(high)/X(q)  e(spline)
   0      6     8.844    45.123    0.62E-03    0.70E-03    0.80E-07
   0      6     8.844    12.364    0.51E-03    0.48E-03    0.55E-07
   1      6     8.844     8.302    0.36E-03    0.27E-03    0.23E-07
 Optimization of the real space projectors (new method)

[...]

   l    n(q)    QCUT    max X(q) W(low)/X(q) W(high)/X(q)  e(spline)
   0      7     8.776    19.000    0.12E-02    0.42E-03    0.95E-07
   0      7     8.776     9.057    0.14E-02    0.54E-03    0.11E-06
   1      6     8.776   125.345    0.45E-03    0.22E-02    0.77E-07
   1      6     8.776    79.963    0.45E-03    0.21E-02    0.76E-07
   2      6     8.776     6.963    0.11E-02    0.51E-03    0.39E-07
 Optimization of the real space projectors (new method)

 maximal supplied QI-value         = 19.84
 optimisation between [QCUT,QGAM] = [  8.73, 17.66] = [ 21.34, 87.33] Ry
 Optimized for a Real-space Cutoff    1.22 Angstroem

   l    n(q)    QCUT    max X(q) W(low)/X(q) W(high)/X(q)  e(spline)
   0      6     8.731   187.594    0.15E-02    0.56E-03    0.90E-07
   0      6     8.731   164.243    0.15E-02    0.56E-03    0.89E-07
   1      6     8.731    67.533    0.37E-03    0.20E-02    0.11E-06
   1      6     8.731    50.729    0.36E-03    0.19E-02    0.10E-06
  PAW_PBE Na 08Apr2002                  :
  PAW_PBE Sb 06Sep2000                  :
  PAW_PBE S 06Sep2000                   :

 POSCAR: Na4 Sb4 S8
  positions in direct lattice
 exchange correlation table for  LEXCH =        8
   RHO(1)=    0.500       N(1)  =     2000
   RHO(2)=  100.500       N(2)  =     4000

 ion  position               nearest neighbor table
   1  0.517  0.738  0.881-  15 3.27  10 3.32  12 3.33  12 3.33  15 3.36  16 3.41
   2  0.483  0.262  0.119-  16 3.27   9 3.32  11 3.33  11 3.33  16 3.36  15 3.41
   3  0.984  0.737  0.619-  13 3.27  12 3.32  10 3.32  10 3.33  13 3.36  14 3.41
   4  0.016  0.263  0.381-  14 3.27  11 3.32   9 3.32   9 3.33  14 3.36  13 3.41
   5  0.037  0.796  0.121-  11 2.58  16 2.58  14 2.90  12 2.93
   6  0.963  0.204  0.879-  12 2.58  15 2.58  13 2.90  11 2.93
   7  0.463  0.795  0.379-   9 2.58  14 2.58  16 2.90  10 2.93
   8  0.537  0.205  0.621-  10 2.58  13 2.58  15 2.90   9 2.93
   9  0.517  0.186  0.384-   7 2.58   8 2.93   2 3.32   4 3.32   4 3.33
  10  0.483  0.814  0.616-   8 2.58   7 2.93   1 3.32   3 3.32   3 3.33
  11  0.983  0.186  0.115-   5 2.58   6 2.93   4 3.32   2 3.33   2 3.33
  12  0.017  0.814  0.885-   6 2.58   5 2.93   3 3.32   1 3.33   1 3.33
  13  0.932  0.230  0.645-   8 2.58   6 2.90   3 3.27   3 3.36   4 3.41
  14  0.068  0.770  0.355-   7 2.58   5 2.90   4 3.27   4 3.36   3 3.41
  15  0.568  0.231  0.855-   6 2.58   8 2.90   1 3.27   1 3.36   2 3.41
  16  0.432  0.769  0.145-   5 2.58   7 2.90   2 3.27   2 3.36   1 3.41

  LATTYP: Found a triclinic cell.
 ALAT       =     6.5798618772
 B/A-ratio  =     2.2511181413
 C/A-ratio  =     0.9954268990
 COS(alpha) =     0.0001051169
 COS(beta)  =     0.0013766762
 COS(gamma) =     0.5517367503

  Lattice vectors:

 A1 = (   6.4569994200,   0.7907541400,  -0.9881541900)
 A2 = (   6.3097297400,  -0.2637628100, -13.3983006200)
 A3 = (  -0.8651498400,   6.4702543800,  -0.5355658400)

Analysis of symmetry for initial positions (statically):
 Subroutine PRICEL returns:
 Original cell was already a primitive cell.

 Routine SETGRP: Setting up the symmetry group for a
 triclinic supercell.

 Subroutine GETGRP returns: Found  2 space group operations
 (whereof  2 operations were pure point group operations)
 out of a pool of  2 trial point group operations.

The static configuration has the point symmetry S_2 .

Analysis of symmetry for dynamics (positions and initial velocities):
 Subroutine PRICEL returns:
 Original cell was already a primitive cell.

 Routine SETGRP: Setting up the symmetry group for a
 triclinic supercell.

 Subroutine GETGRP returns: Found  2 space group operations
 (whereof  2 operations were pure point group operations)
 out of a pool of  2 trial point group operations.

The dynamic configuration has the point symmetry S_2 .

 Subroutine INISYM returns: Found  2 space group operations
 (whereof  2 operations are pure point group operations),
 and found     1 'primitive' translations

 KPOINTS: pymatgen with grid density = 807 / numbe

Automatic generation of k-mesh.
Space group operators:
 irot       det(A)        alpha          n_x          n_y          n_z        tau_x        tau_y        tau_z
    1     1.000000     0.000000     1.000000     0.000000     0.000000     0.000000     0.000000     0.000000
    2    -1.000000     0.000000     1.000000     0.000000     0.000000     0.000000     0.000000     0.000000

 Subroutine IBZKPT returns following result:

 Found      9 irreducible k-points:

 Following reciprocal coordinates:
            Coordinates               Weight
  0.000000  0.000000  0.250000      2.000000
  0.333333 -0.000000  0.250000      2.000000
 -0.333333 -0.000000  0.250000      2.000000
 -0.000000  0.333333  0.250000      2.000000
  0.333333  0.333333  0.250000      2.000000
 -0.333333  0.333333  0.250000      2.000000
 -0.000000 -0.333333  0.250000      2.000000
  0.333333 -0.333333  0.250000      2.000000
 -0.333333 -0.333333  0.250000      2.000000

 Following cartesian coordinates:
            Coordinates               Weight
  0.002803  0.002025  0.019939      2.000000
  0.053431  0.008698  0.018772      2.000000
 -0.047824 -0.004648  0.021107      2.000000
 -0.003993  0.052287  0.015749      2.000000
  0.046634  0.058960  0.014581      2.000000
 -0.054621  0.045615  0.016917      2.000000
  0.009600 -0.048237  0.024130      2.000000
  0.060228 -0.041564  0.022962      2.000000
 -0.041028 -0.054910  0.025297      2.000000

 SYSTEM =  CIS
 POSCAR =  Na4 Sb4 S8

 Startparameter for this run:
   NWRITE =      2    write-flag & timer
   PREC   = medium    normal or accurate (medium, high low for compatibility)
   ISTART =      0    job   : 0-new  1-cont  2-samecut
   ICHARG =      2    charge: 1-file 2-atom 10-const
   ISPIN  =      1    spin polarized calculation?
   LNONCOLLINEAR =      F non collinear calculations
   LSORBIT =      F    spin-orbit coupling
   INIWAV =      1    electr: 0-lowe 1-rand  2-diag
   LASPH  =      T    aspherical Exc in radial PAW
   METAGGA=      F    non-selfconsistent MetaGGA calc.

 Electronic Relaxation 1
   ENCUT  =  300.0 eV  22.05 Ry    4.70 a.u.   9.29  9.25 17.59*2*pi/ulx,y,z
   ENINI  =  300.0     initial cutoff
   ENAUG  =  380.5 eV  augmentation charge cutoff
   NELM   =     60;   NELMIN=  2; NELMDL= -5     # of ELM steps
   EDIFF  = 0.1E-03   stopping-criterion for ELM
   LREAL  =      T    real-space projection
   NLSPLINE    = F    spline interpolate recip. space projectors
   LCOMPAT=      F    compatible to vasp.4.4
   GGA_COMPAT  = T    GGA compatible to vasp.4.4-vasp.4.6
   LMAXPAW     = -100 max onsite density
   LMAXMIX     =    4 max onsite mixed and CHGCAR
   VOSKOWN=      0    Vosko Wilk Nusair interpolation
   ROPT   =   -0.00200  -0.00200  -0.00200
 Ionic relaxation
   EDIFFG = -.5E-01   stopping-criterion for IOM
   NSW    =     99    number of steps for IOM
   NBLOCK =      1;   KBLOCK =     99    inner block; outer block
   IBRION =      2    ionic relax: 0-MD 1-quasi-New 2-CG
   NFREE  =      1    steps in history (QN), initial steepest desc. (CG)
   ISIF   =      3    stress and relaxation
   IWAVPR =     11    prediction:  0-non 1-charg 2-wave 3-comb
   ISYM   =      2    0-nonsym 1-usesym 2-fastsym
   LCORR  =      T    Harris-Foulkes like correction to forces

   POTIM  = 0.1000    time-step for ionic-motion
   TEIN   =    0.0    initial temperature
   TEBEG  =    0.0;   TEEND  =   0.0 temperature during run
   SMASS  =  -3.00    Nose mass-parameter (am)
   estimated Nose-frequenzy (Omega)   =  0.10E-29 period in steps =****** mass=  -0.989E-27a.u.
   SCALEE = 1.0000    scale energy and forces
   NPACO  =    256;   APACO  = 16.0  distance and # of slots for P.C.
   PSTRESS=    0.0 pullay stress

  Mass of Ions in am
   POMASS =  22.99121.75 32.07
  Ionic Valenz
   ZVAL   =   1.00  5.00  6.00
  Atomic Wigner-Seitz radii
  virtual crystal weights
   VCA    =   1.00  1.00  1.00
   NELECT =      72.0000    total number of electrons
   NUPDOWN=      -1.0000    fix difference up-down

 DOS related values:
   EMIN   =  10.00;   EMAX   =-10.00  energy-range for DOS
   EFERMI =   0.00
   ISMEAR =     0;   SIGMA  =   0.05  broadening in eV -4-tet -1-fermi 0-gaus

 Electronic relaxation 2 (details)
   IALGO  =     38    algorithm
   LDIAG  =      T    sub-space diagonalisation (order eigenvalues)
   LSUBROT=      F    optimize rotation matrix (better conditioning)
   TURBO    =      0    0=normal 1=particle mesh
   IRESTART =      0    0=no restart 2=restart with 2 vectors
   NREBOOT  =      0    no. of reboots
   NMIN     =      0    reboot dimension
   EREF     =   0.00    reference energy to select bands
   IMIX   =      4    mixing-type and parameters
     AMIX     =   0.40;   BMIX     =  1.00
     AMIX_MAG =   1.60;   BMIX_MAG =  1.00
     AMIN     =   0.10
     WC   =   100.;   INIMIX=   1;  MIXPRE=   1;  MAXMIX= -45

 Intra band minimization:
   WEIMIN = 0.0010     energy-eigenvalue tresh-hold
   EBREAK =  0.45E-06  absolut break condition
   DEPER  =   0.30     relativ break condition

   TIME   =   0.40     timestep for ELM

  volume/ion in A,a.u.               =      33.27       224.55
  Fermi-wavevector in a.u.,A,eV,Ry     =   0.840313  1.587962  9.607437  0.706127
  Thomas-Fermi vector in A             =   1.954675

 Write flags
   LWAVE        =      F    write WAVECAR
   LDOWNSAMPLE  =      F    k-point downsampling of WAVECAR
   LCHARG       =      F    write CHGCAR
   LVTOT        =      F    write LOCPOT, total local potential
   LVHAR        =      F    write LOCPOT, Hartree potential only
   LELF         =      F    write electronic localiz. function (ELF)
   LORBIT       =     10    0 simple, 1 ext, 2 COOP (PROOUT), +10 PAW based schemes

 Dipole corrections
   LMONO  =      F    monopole corrections only (constant potential shift)
[...]
      5.91231      2.90648      6.95733        -0.749270     -0.185917      0.230916
     -0.17319      5.40904      3.92910         0.749270      0.185917     -0.230916
      3.59257      2.84309      9.92571         0.782430     -0.037458     -0.203157
      2.14655      5.47244      0.96071        -0.782430      0.037458      0.203157
    total drift:                               -0.000000      0.000000      0.000000

  FREE ENERGIE OF THE ION-ELECTRON SYSTEM (eV)
  free  energy   TOTEN  =       -63.50224986 eV

  energy  without entropy=      -63.50224986  energy(sigma->0) =      -63.50224986

[...]

 d Force = 0.8093681E-01[ 0.625E-01, 0.993E-01]  d Energy = 0.6080315E+00-0.527E+00
 d Force =-0.6685157E+01[-0.682E+01,-0.655E+01]  d Ewald  = 0.1616759E+02-0.229E+02

 Steepest descent step on ions:
 trial-energy change:   -0.608031  1 .order   -0.604029   -0.672866   -0.535191
  (g-gl).g = 0.673E+00      g.g   = 0.673E+00  gl.gl    = 0.000E+00
 g(Force)  = 0.100E+00   g(Stress)= 0.572E+00 ortho     = 0.000E+00
 gamma     =   0.00000
 trial     =   1.00000
 opt step  =   3.43167  (harmonic =   4.88736) maximal distance =0.03101071
 next E    =   -64.818539   (d E  =  -1.31629)

[...]

 d Force = 0.1918175E-01[-0.111E+00, 0.150E+00]  d Energy = 0.8233715E+00-0.804E+00
 d Force =-0.1715213E+02[-0.180E+02,-0.163E+02]  d Ewald  = 0.4016122E+02-0.573E+02

[...]

 d Force =-0.3414621E-01[-0.420E-01,-0.263E-01]  d Energy = 0.2933486E-01-0.635E-01
 d Force =-0.4304877E+01[-0.435E+01,-0.426E+01]  d Ewald  = 0.9398792E+01-0.137E+02

[...]

 d Force = 0.8657571E-01[ 0.835E-01, 0.897E-01]  d Energy = 0.1169787E+00-0.304E-01
 d Force = 0.8254366E+01[ 0.821E+01, 0.830E+01]  d Ewald  = 0.1746789E+02-0.921E+01

 Conjugate gradient step on ions:
 trial-energy change:   -0.116979  1 .order   -0.119855   -0.127681   -0.112029
  (g-gl).g = 0.836E-01      g.g   = 0.803E-01  gl.gl    = 0.673E+00
 g(Force)  = 0.656E-01   g(Stress)= 0.146E-01 ortho     =-0.334E-02
 gamma     =   0.12425
 trial     =   1.59895
 opt step  =   6.39580  (harmonic =  13.04312) maximal distance =0.04238849
 next E    =   -65.483756   (d E  =  -0.52077)

[...]

 E-fermi :   3.9315     XC(G=0):  -8.9812     alpha+bet :-10.2809

[...]

 d Force =-0.5518084E-01[-0.276E+00, 0.166E+00]  d Energy = 0.3757617E-01-0.928E-01
 d Force = 0.5382356E+02[ 0.471E+02, 0.606E+02]  d Ewald  = 0.1122094E+03-0.584E+02

[...]

 d Force = 0.8132518E-01[ 0.486E-01, 0.114E+00]  d Energy = 0.6069781E-01 0.206E-01
 d Force =-0.2098422E+02[-0.222E+02,-0.198E+02]  d Ewald  =-0.4421795E+02 0.232E+02

[...]

 Conjugate gradient step on ions:
 trial-energy change:   -0.049649  1 .order   -0.050251   -0.057775   -0.042728
  (g-gl).g =-0.329E-02      g.g   = 0.240E-01  gl.gl    = 0.143E+00
 g(Force)  = 0.168E-01   g(Stress)= 0.716E-02 ortho     =-0.164E-02
 gamma     =  -0.02296
 trial     =   2.40757
 opt step  =   9.24399  (harmonic =   9.24399) maximal distance =0.03562258
 next E    =   -66.074160   (d E  =  -0.11091)

[...]

 d Force = 0.3202804E-01[ 0.246E-01, 0.394E-01]  d Energy = 0.3834985E-01-0.632E-02
 d Force = 0.1392025E+01[ 0.134E+01, 0.144E+01]  d Ewald  =-0.4014996E+01 0.541E+01

[...]

 d Force = 0.2096265E-01[-0.298E-02, 0.449E-01]  d Energy = 0.1149775E-01 0.946E-02
 d Force = 0.2277663E+01[ 0.211E+01, 0.244E+01]  d Ewald  =-0.7548765E+01 0.983E+01

[...]

 d Force =-0.2362192E-02[-0.581E-02, 0.108E-02]  d Energy = 0.4794943E-02-0.716E-02
 d Force =-0.7947826E+00[-0.816E+00,-0.773E+00]  d Ewald  = 0.2788945E+01-0.358E+01

[...]

 Conjugate gradient step on ions:
 trial-energy change:   -0.013473  1 .order   -0.015059   -0.023200   -0.006918
  (g-gl).g = 0.484E-02      g.g   = 0.558E-02  gl.gl    = 0.161E-01
 g(Force)  = 0.183E-02   g(Stress)= 0.375E-02 ortho     = 0.736E-05
 gamma     =   0.30112
 trial     =   4.15417
 opt step  =   5.91933  (harmonic =   5.91933) maximal distance =0.01494810
 next E    =   -66.138236   (d E  =  -0.01653)

[...]

 d Force =-0.3285490E-02[-0.980E-02, 0.323E-02]  d Energy =-0.3596714E-02 0.311E-03
 d Force = 0.3762134E+01[ 0.362E+01, 0.390E+01]  d Ewald  = 0.7799114E+01-0.404E+01

[...]

 E-fermi :   3.7672     XC(G=0):  -8.8353     alpha+bet : -9.9965

[...]

 d Force = 0.3858193E-02[ 0.915E-03, 0.680E-02]  d Energy = 0.3957617E-02-0.994E-04
 d Force =-0.2589706E+01[-0.266E+01,-0.252E+01]  d Ewald  =-0.5401021E+01 0.281E+01

[...]

 d Force =-0.4348959E-03[-0.695E-03,-0.174E-03]  d Energy = 0.6185587E-03-0.105E-02
 d Force =-0.9422907E+00[-0.948E+00,-0.937E+00]  d Ewald  =-0.2595581E+01 0.165E+01

[...]

 d Force = 0.3266336E-02[ 0.150E-02, 0.504E-02]  d Energy = 0.2799778E-02 0.467E-03
 d Force = 0.1255309E+01[ 0.123E+01, 0.128E+01]  d Ewald  = 0.1521921E+01-0.267E+00

[...]

 d Force = 0.1532761E-03[-0.371E-04, 0.344E-03]  d Energy = 0.1650422E-04 0.137E-03
 d Force = 0.2810699E+00[ 0.280E+00, 0.282E+00]  d Ewald  = 0.3420644E+00-0.610E-01

[...]

 Conjugate gradient step on ions:
 trial-energy change:   -0.002285  1 .order   -0.002360   -0.003044   -0.001676
  (g-gl).g = 0.943E-03      g.g   = 0.851E-03  gl.gl    = 0.945E-03
 g(Force)  = 0.760E-03   g(Stress)= 0.906E-04 ortho     =-0.755E-04
 gamma     =   0.99813
 trial     =   3.92697
 opt step  =   8.73801  (harmonic =   8.73801) maximal distance =0.01447546
 next E    =   -66.160372   (d E  =  -0.00339)

[...]

 d Force = 0.1381397E-02[ 0.901E-03, 0.186E-02]  d Energy = 0.5661941E-03 0.815E-03
 d Force =-0.2483181E+00[-0.249E+00,-0.248E+00]  d Ewald  = 0.3839149E+00-0.632E+00

[...]

 Conjugate gradient step on ions:
 trial-energy change:   -0.001792  1 .order   -0.002398   -0.003573   -0.001222
  (g-gl).g = 0.304E-03      g.g   = 0.685E-03  gl.gl    = 0.851E-03
 g(Force)  = 0.557E-03   g(Stress)= 0.128E-03 ortho     = 0.129E-03
 gamma     =   0.35756
 trial     =   4.88918
 opt step  =   7.43169  (harmonic =   7.43169) maximal distance =0.00913681
 next E    =   -66.162552   (d E  =  -0.00272)

[...]

 eigenvalue-minimisations  :  1358
 total energy-change (2. order) :-0.1026013E-03  (-0.2387645E-03)
 number of electron      71.9999689 magnetization
 augmentation part       -9.8178608 magnetization

 Broyden mixing:
  rms(total) = 0.57132E-02    rms(broyden)= 0.57128E-02
  rms(prec ) = 0.67242E-02
  weight for this iteration     100.00

 eigenvalues of (default mixing * dielectric matrix)
  average eigenvalue GAMMA=   0.9366
  0.9366

[...]

--------------------------------------- Iteration     32(   3)  ---------------------------------------

 eigenvalue-minimisations  :   840
 total energy-change (2. order) : 0.3934629E-04  (-0.9102340E-05)
 number of electron      71.9999689 magnetization
 augmentation part       -9.8178608 magnetization

 Free energy of the ion-electron system (eV)
  alpha Z        PSCENC =        15.29945360
  Ewald energy   TEWEN  =     -2491.20649093
  -Hartree energ DENC   =      -496.09983279
  -exchange      EXHF   =         0.00000000
  -V(xc)+E(xc)   XCENC  =      -227.69918855
  PAW double counting   =      5506.33620090    -5116.28391275
  entropy T*S    EENTRO =        -0.00000000
  eigenvalues    EBANDS =       -91.46170476
  atomic energy  EATOM  =      2834.95345036
  Solvation  Ediel_sol  =         0.00000000
  free energy    TOTEN  =       -66.16202492 eV

  energy without entropy =      -66.16202492  energy(sigma->0) =      -66.16202492

 average (electrostatic) potential at core
  the test charge radii are     1.1212  1.1712  0.9698
  (the norm of the test charge is              1.0000)
       1 -38.5449       2 -38.5449       3 -38.5547       4 -38.5547       5 -89.1233
       6 -89.1233       7 -89.1648       8 -89.1648       9 -86.8849      10 -86.8849
      11 -86.8189      12 -86.8189      13 -86.8527      14 -86.8527      15 -86.8252
      16 -86.8252

 E-fermi :   3.8070     XC(G=0):  -8.8696     alpha+bet :-10.0647

[...]

 k-point     9 :      -0.3333   -0.3333    0.2500
  band No.  band energies     occupation
      1      -9.2502      2.00000
      2      -8.7874      2.00000
      3      -8.7681      2.00000
      4      -8.0094      2.00000
      5      -7.9985      2.00000
      6      -7.9065      2.00000
      7      -7.8634      2.00000
      8      -7.8332      2.00000
      9      -5.3643      2.00000
     10      -4.5890      2.00000
     11      -4.4940      2.00000
     12      -3.9463      2.00000
     13      -0.5097      2.00000
     14       0.0528      2.00000
     15       0.2742      2.00000
     16       0.3452      2.00000
     17       0.6501      2.00000
     18       0.6797      2.00000
     19       0.8607      2.00000
     20       1.0072      2.00000
     21       1.0492      2.00000
     22       1.4273      2.00000
     23       1.5052      2.00000
     24       1.6536      2.00000
     25       1.9046      2.00000
     26       2.0078      2.00000
     27       2.1534      2.00000
     28       2.3592      2.00000
     29       2.5503      2.00000
     30       2.6880      2.00000
     31       2.7121      2.00000
     32       2.8024      2.00000
     33       3.0766      2.00000
     34       3.2047      2.00000
     35       3.4387      2.00000
     36       3.5801      2.00000
     37       5.6224      0.00000
     38       5.8345      0.00000
     39       5.9795      0.00000
     40       6.2078      0.00000
     41       6.2928      0.00000
     42       6.6359      0.00000
     43       6.7394      0.00000
     44       6.9063      0.00000
     45       7.0387      0.00000
     46       7.1049      0.00000
     47       7.2067      0.00000
     48       7.4648      0.00000
     49       9.5137      0.00000
     50       9.6955      0.00000
     51       9.9667      0.00000
     52      10.0910      0.00000
     53      10.1221      0.00000
     54      10.3979      0.00000
     55      10.5075      0.00000
     56      10.7640      0.00000

 soft charge-density along one line, spin component           1
         0         1         2         3         4         5         6         7         8         9
 total charge-density along one line

------------------------ aborting loop because EDIFF is reached ----------------------------------------

[...]

  FORCE on cell =-STRESS in cart. coord.  units (eV):
  Direction    XX          YY          ZZ          XY          YZ          ZX
  Alpha Z    15.29945    15.29945    15.29945
  Ewald    -843.33371  -865.00367  -782.87444     7.17751    13.97840    60.59728
  Hartree   153.66645   139.39835   203.07080     5.22257     9.66678    36.17398
  E(xc)    -258.17811  -258.01042  -256.23528    -0.00054     0.17322     0.23236
  Local    -567.16201  -531.01441  -673.28161   -12.60807   -23.12857   -93.91246
  n-local   925.65687   923.96061   910.30537    -0.05192    -1.35047    -1.31286
  augment  -209.21874  -209.02833  -206.62590    -0.02281     0.25158     0.49343
  Kinetic   783.44971   784.34810   790.35551     0.24308     0.33853    -2.22087
  Fock        0.00000     0.00000     0.00000     0.00000     0.00000     0.00000
  Total       0.17991    -0.05031     0.01390    -0.04019    -0.07054     0.05085
  in kB       0.76261    -0.21325     0.05892    -0.17038    -0.29900     0.21553

 VOLUME and BASIS-vectors are now :
  energy-cutoff  :      300.00
  volume of cell :      377.98
      direct lattice vectors                 reciprocal lattice vectors
     5.665134101  0.718803250 -0.593903281     0.172424727  0.021926153 -0.012510806
    -0.751893831  5.646999272 -0.465846865    -0.023432539  0.172776726 -0.014406391
     0.697630429  1.049707132 11.454479727     0.007987062  0.008163576  0.086067516

  length of vectors
     5.741353813  5.715851504 11.523613977     0.174262913  0.174952637  0.086821970

 FORCES acting on ions
    electron-ion (+dipol)            ewald-force                    non-local-force                 convergence-correction
   0.516E+00 0.272E+01 -.731E+00   -.552E+00 -.262E+01 0.708E+00   0.987E-02 -.105E+00 0.295E-01   -.669E-04 -.336E-03 -.253E-02
   -.516E+00 -.272E+01 0.731E+00   0.552E+00 0.262E+01 -.708E+00   -.987E-02 0.105E+00 -.295E-01   0.669E-04 0.336E-03 0.253E-02
   -.125E+01 0.250E+01 -.840E-01   0.127E+01 -.239E+01 0.121E+00   0.359E-02 -.112E+00 -.257E-01   -.347E-03 -.738E-03 -.227E-02
   0.125E+01 -.250E+01 0.840E-01   -.127E+01 0.239E+01 -.121E+00   -.359E-02 0.112E+00 0.257E-01   0.347E-03 0.738E-03 0.227E-02
   0.168E+02 0.242E+02 -.284E+01   -.225E+02 -.312E+02 0.381E+01   0.559E+01 0.702E+01 -.946E+00   0.889E-02 0.450E-02 0.145E-01
   -.168E+02 -.242E+02 0.284E+01   0.225E+02 0.312E+02 -.381E+01   -.559E+01 -.702E+01 0.946E+00   -.889E-02 -.450E-02 -.145E-01
   -.236E+02 0.190E+02 0.233E+01   0.308E+02 -.243E+02 -.266E+01   -.723E+01 0.521E+01 0.330E+00   -.114E-02 -.402E-02 0.162E-01
   0.236E+02 -.190E+02 -.233E+01   -.308E+02 0.243E+02 0.266E+01   0.723E+01 -.521E+01 -.330E+00   0.114E-02 0.402E-02 -.162E-01
   -.684E-01 -.334E+02 0.335E+02   -.618E-01 0.357E+02 -.355E+02   0.133E+00 -.231E+01 0.202E+01   -.189E-02 0.143E-01 0.875E-02
   0.684E-01 0.334E+02 -.335E+02   0.618E-01 -.357E+02 0.355E+02   -.133E+00 0.231E+01 -.202E+01   0.189E-02 -.143E-01 -.875E-02
   0.102E+02 -.375E+02 -.235E+02   -.107E+02 0.401E+02 0.249E+02   0.542E+00 -.262E+01 -.148E+01   -.119E-02 -.865E-02 0.212E-01
   -.102E+02 0.375E+02 0.235E+02   0.107E+02 -.401E+02 -.249E+02   -.542E+00 0.262E+01 0.148E+01   0.119E-02 0.865E-02 -.212E-01
   -.313E+02 -.167E+02 0.299E+02   0.336E+02 0.172E+02 -.317E+02   -.225E+01 -.506E+00 0.189E+01   -.968E-02 0.555E-02 -.233E-01
   0.313E+02 0.167E+02 -.299E+02   -.336E+02 -.172E+02 0.317E+02   0.225E+01 0.506E+00 -.189E+01   0.968E-02 -.555E-02 0.233E-01
   0.342E+02 -.129E+02 -.300E+02   -.367E+02 0.131E+02 0.318E+02   0.235E+01 -.177E+00 -.179E+01   0.210E-01 0.340E-02 -.140E-01
   -.342E+02 0.129E+02 0.300E+02   0.367E+02 -.131E+02 -.318E+02   -.235E+01 0.177E+00 0.179E+01   -.210E-01 -.340E-02 0.140E-01
   0.834E-12 0.592E-11 0.458E-10   -.142E-13 -.213E-13 0.711E-14   0.888E-15 0.133E-14 0.000E+00   0.227E-12 -.334E-12 -.149E-12

 POSITION                                       TOTAL-FORCE (eV/Angst)
      2.93709      5.48376      9.38643        -0.026204     -0.005646      0.003661
      2.67378      1.93175      1.00830         0.026204      0.005646     -0.003661
      5.48693      5.57420      6.21994         0.019034     -0.003240      0.008740
      0.12394      1.84131      4.17479        -0.019034      0.003240     -0.008740
     -0.35032      4.54995      1.05325        -0.030331      0.013595      0.034884
      5.96119      2.86556      9.34148         0.030331     -0.013595     -0.034884
      2.41787      5.13162      3.67497         0.004844     -0.045506      0.009471
      3.19300      2.28389      6.71976        -0.004844      0.045506     -0.009471
      3.00885      1.99960      3.97268         0.001070     -0.025144     -0.011780
      2.60202      5.41591      6.42205        -0.001070      0.025144      0.011780
      5.51877      2.06753      0.66712         0.013895     -0.009895     -0.004943
      0.09210      5.34797      9.72761        -0.013895      0.009895      0.004943
      5.65438      2.73275      6.55898         0.000548      0.007031      0.021372
     -0.04351      4.68276      3.83575        -0.000548     -0.007031     -0.021372
      3.47122      2.67162      9.49102        -0.046229     -0.005613     -0.012316
      2.13965      4.74389      0.90371         0.046229      0.005613      0.012316
    total drift:                                0.000000      0.000000      0.000000

  FREE ENERGIE OF THE ION-ELECTRON SYSTEM (eV)
  free  energy   TOTEN  =       -66.16202492 eV

  energy  without entropy=      -66.16202492  energy(sigma->0) =      -66.16202492

 d Force = 0.4112257E-03[ 0.342E-03, 0.481E-03]  d Energy = 0.3965061E-03 0.147E-04
 d Force = 0.4989819E-01[ 0.479E-01, 0.519E-01]  d Ewald  =-0.1577582E+00 0.208E+00

 reached required accuracy - stopping structural energy minimisation

 total charge

# of ion       s       p       d       tot
    1        0.051   0.038   0.000   0.089
    2        0.051   0.038   0.000   0.089
    3        0.051   0.038   0.000   0.089
    4        0.051   0.038   0.000   0.089
    5        1.283   0.922   0.066   2.272
    6        1.283   0.922   0.066   2.272
    7        1.283   0.921   0.067   2.271
    8        1.283   0.921   0.067   2.271
    9        1.350   2.354   0.000   3.704
   10        1.350   2.354   0.000   3.704
   11        1.349   2.354   0.000   3.703
   12        1.349   2.354   0.000   3.703
   13        1.349   2.357   0.000   3.706
   14        1.349   2.357   0.000   3.706
   15        1.349   2.357   0.000   3.706
   16        1.349   2.357   0.000   3.706
tot         16.129  22.682   0.266  39.078