 vasp.5.4.4.18Apr17-6-g9f103f2a35 (build Oct 27 2022 13:04:57) complex

 executed on             LinuxIFC date 2024.07.03  22:42:40

 INCAR:
 POTCAR:    PAW_PBE Li 17Jan2003
 POTCAR:    PAW_PBE Al 04Jan2001
 POTCAR:    PAW_PBE S 06Sep2000

 POTCAR:    PAW_PBE Li 17Jan2003
   VRHFIN =Li: s1p0

   TITEL  = PAW_PBE Li 17Jan2003
   POMASS =    7.010; ZVAL   =    1.000    mass and valenz
   ENMAX  =  140.000; ENMIN  =  100.000 eV

 POTCAR:    PAW_PBE Al 04Jan2001
   VRHFIN =Al: s2p1

   TITEL  = PAW_PBE Al 04Jan2001
   POMASS =   26.981; ZVAL   =    3.000    mass and valenz
   ENMAX  =  240.300; ENMIN  =  180.225 eV

 POTCAR:    PAW_PBE S 06Sep2000
   VRHFIN =S : s2p4

   TITEL  = PAW_PBE S 06Sep2000
   POMASS =   32.066; ZVAL   =    6.000    mass and valenz
   ENMAX  =  258.689; ENMIN  =  194.016 eV

 Optimization of the real space projectors (new method)

 maximal supplied QI-value         = 18.33
 optimisation between [QCUT,QGAM] = [  8.80, 17.60] = [ 21.68, 86.71] Ry
 Optimized for a Real-space Cutoff    1.15 Angstroem

   l    n(q)    QCUT    max X(q) W(low)/X(q) W(high)/X(q)  e(spline)
   0      6     8.799    33.825    0.11E-02    0.11E-02    0.82E-07
   0      6     8.799     8.944    0.75E-03    0.85E-03    0.59E-07
   1      5     8.799     4.214    0.92E-03    0.27E-03    0.41E-07
 Optimization of the real space projectors (new method)

[...]

   l    n(q)    QCUT    max X(q) W(low)/X(q) W(high)/X(q)  e(spline)
   0      6     8.731   176.870    0.15E-02    0.11E-03    0.68E-07
   0      6     8.731   105.762    0.15E-02    0.11E-03    0.66E-07
   1      5     8.731    55.370    0.19E-02    0.30E-02    0.57E-07
   1      5     8.731    20.208    0.17E-02    0.27E-02    0.55E-07
 Optimization of the real space projectors (new method)

 maximal supplied QI-value         = 19.84
 optimisation between [QCUT,QGAM] = [  8.73, 17.66] = [ 21.34, 87.33] Ry
 Optimized for a Real-space Cutoff    1.22 Angstroem

   l    n(q)    QCUT    max X(q) W(low)/X(q) W(high)/X(q)  e(spline)
   0      6     8.731   187.594    0.15E-02    0.56E-03    0.90E-07
   0      6     8.731   164.243    0.15E-02    0.56E-03    0.89E-07
   1      6     8.731    67.533    0.37E-03    0.20E-02    0.11E-06
   1      6     8.731    50.729    0.36E-03    0.19E-02    0.10E-06
  PAW_PBE Li 17Jan2003                  :
  PAW_PBE Al 04Jan2001                  :
  PAW_PBE S 06Sep2000                   :

 POSCAR: Li4 Al4 S8
  positions in direct lattice
 exchange correlation table for  LEXCH =        8
   RHO(1)=    0.500       N(1)  =     2000
   RHO(2)=  100.500       N(2)  =     4000

 ion  position               nearest neighbor table
   1  0.120  0.914  0.622-  16 2.53  13 2.54   9 2.55  10 2.56
   2  0.620  0.086  0.378-  15 2.53  14 2.54  10 2.55   9 2.56
   3  0.620  0.586  0.122-  14 2.53  15 2.54  11 2.55  12 2.56
   4  0.120  0.414  0.878-  13 2.53  16 2.54  12 2.55  11 2.56
   5  0.623  0.573  0.626-  15 2.40  12 2.41   9 2.42  16 2.42
   6  0.123  0.427  0.374-  16 2.40  11 2.41  10 2.42  15 2.42
   7  0.123  0.927  0.126-  13 2.40  10 2.41  11 2.42  14 2.42
   8  0.623  0.073  0.874-  14 2.40   9 2.41  12 2.42  13 2.42
   9  0.506  0.907  0.634-   8 2.41   5 2.42   1 2.55   2 2.56
  10  0.006  0.093  0.366-   7 2.41   6 2.42   2 2.55   1 2.56
  11  0.006  0.593  0.134-   6 2.41   7 2.42   3 2.55   4 2.56
  12  0.506  0.407  0.866-   5 2.41   8 2.42   4 2.55   3 2.56
  13  0.990  0.067  0.881-   7 2.40   8 2.42   4 2.53   1 2.54
  14  0.490  0.933  0.119-   8 2.40   7 2.42   3 2.53   2 2.54
  15  0.490  0.433  0.381-   5 2.40   6 2.42   2 2.53   3 2.54
  16  0.990  0.567  0.619-   6 2.40   5 2.42   1 2.53   4 2.54

  LATTYP: Found a simple orthorhombic cell.
 ALAT       =     6.5895737600
 B/A-ratio  =     1.0424850863
 C/A-ratio  =     1.2541448948

  Lattice vectors:

 A1 = (   6.5895737600,   0.0000000000,   0.0000000000)
 A2 = (   0.0000000000,   6.8695323700,   0.0000000000)
 A3 = (   0.0000000000,   0.0000000000,   8.2642802900)

Analysis of symmetry for initial positions (statically):
 Subroutine PRICEL returns:
 Original cell was already a primitive cell.

 Routine SETGRP: Setting up the symmetry group for a
 simple orthorhombic supercell.

 Subroutine GETGRP returns: Found  4 space group operations
 (whereof  1 operations were pure point group operations)
 out of a pool of  8 trial point group operations.

The static configuration has the point symmetry C_1 .
 The point group associated with its full space group is C_2v.

Analysis of symmetry for dynamics (positions and initial velocities):
 Subroutine PRICEL returns:
 Original cell was already a primitive cell.

 Routine SETGRP: Setting up the symmetry group for a
 simple orthorhombic supercell.

 Subroutine GETGRP returns: Found  4 space group operations
 (whereof  1 operations were pure point group operations)
 out of a pool of  8 trial point group operations.

The dynamic configuration has the point symmetry C_1 .
 The point group associated with its full space group is C_2v.

 Subroutine INISYM returns: Found  4 space group operations
 (whereof  1 operations are pure point group operations),
 and found     1 'primitive' translations

 KPOINTS: pymatgen with grid density = 807 / numbe

Automatic generation of k-mesh.
Space group operators:
 irot       det(A)        alpha          n_x          n_y          n_z        tau_x        tau_y        tau_z
    1     1.000000     0.000000     1.000000     0.000000     0.000000     0.000000     0.000000     0.000000
    2    -1.000000   180.000000     0.000000     0.000000     1.000000     0.000000     0.500000     0.500000
    3    -1.000000   179.999999     0.000000     1.000000     0.000000     0.500000     0.500000     0.500000
    4     1.000000   180.000000     1.000000     0.000000     0.000000     0.500000     0.000000     0.000000

 Subroutine IBZKPT returns following result:

 Found      8 irreducible k-points:

 Following reciprocal coordinates:
            Coordinates               Weight
  0.000000  0.000000  0.000000      1.000000
  0.333333  0.000000  0.000000      2.000000
  0.000000  0.333333  0.000000      2.000000
  0.333333  0.333333  0.000000      4.000000
  0.000000  0.000000  0.333333      2.000000
  0.333333  0.000000  0.333333      4.000000
  0.000000  0.333333  0.333333      4.000000
  0.333333  0.333333  0.333333      8.000000

 Following cartesian coordinates:
            Coordinates               Weight
  0.000000  0.000000  0.000000      1.000000
  0.050585  0.000000  0.000000      2.000000
  0.000000  0.048523  0.000000      2.000000
  0.050585  0.048523  0.000000      4.000000
  0.000000  0.000000  0.040334      2.000000
  0.050585  0.000000  0.040334      4.000000
  0.000000  0.048523  0.040334      4.000000
  0.050585  0.048523  0.040334      8.000000

 SYSTEM =  CIS
 POSCAR =  Li4 Al4 S8

 Startparameter for this run:
   NWRITE =      2    write-flag & timer
   PREC   = medium    normal or accurate (medium, high low for compatibility)
   ISTART =      0    job   : 0-new  1-cont  2-samecut
   ICHARG =      2    charge: 1-file 2-atom 10-const
   ISPIN  =      1    spin polarized calculation?
   LNONCOLLINEAR =      F non collinear calculations
   LSORBIT =      F    spin-orbit coupling
   INIWAV =      1    electr: 0-lowe 1-rand  2-diag
   LASPH  =      T    aspherical Exc in radial PAW
   METAGGA=      F    non-selfconsistent MetaGGA calc.

 Electronic Relaxation 1
   ENCUT  =  300.0 eV  22.05 Ry    4.70 a.u.   9.31  9.70 11.67*2*pi/ulx,y,z
   ENINI  =  300.0     initial cutoff
   ENAUG  =  335.1 eV  augmentation charge cutoff
   NELM   =     60;   NELMIN=  2; NELMDL= -5     # of ELM steps
   EDIFF  = 0.1E-03   stopping-criterion for ELM
   LREAL  =      T    real-space projection
   NLSPLINE    = F    spline interpolate recip. space projectors
   LCOMPAT=      F    compatible to vasp.4.4
   GGA_COMPAT  = T    GGA compatible to vasp.4.4-vasp.4.6
   LMAXPAW     = -100 max onsite density
   LMAXMIX     =    4 max onsite mixed and CHGCAR
   VOSKOWN=      0    Vosko Wilk Nusair interpolation
   ROPT   =   -0.00200  -0.00200  -0.00200
 Ionic relaxation
   EDIFFG = -.5E-01   stopping-criterion for IOM
   NSW    =     99    number of steps for IOM
   NBLOCK =      1;   KBLOCK =     99    inner block; outer block
   IBRION =      2    ionic relax: 0-MD 1-quasi-New 2-CG
   NFREE  =      1    steps in history (QN), initial steepest desc. (CG)
   ISIF   =      3    stress and relaxation
   IWAVPR =     11    prediction:  0-non 1-charg 2-wave 3-comb
   ISYM   =      2    0-nonsym 1-usesym 2-fastsym
   LCORR  =      T    Harris-Foulkes like correction to forces

   POTIM  = 0.1000    time-step for ionic-motion
   TEIN   =    0.0    initial temperature
   TEBEG  =    0.0;   TEEND  =   0.0 temperature during run
   SMASS  =  -3.00    Nose mass-parameter (am)
   estimated Nose-frequenzy (Omega)   =  0.10E-29 period in steps =****** mass=  -0.992E-27a.u.
   SCALEE = 1.0000    scale energy and forces
   NPACO  =    256;   APACO  = 16.0  distance and # of slots for P.C.
   PSTRESS=    0.0 pullay stress

  Mass of Ions in am
   POMASS =   7.01 26.98 32.07
  Ionic Valenz
   ZVAL   =   1.00  3.00  6.00
  Atomic Wigner-Seitz radii
  virtual crystal weights
   VCA    =   1.00  1.00  1.00
   NELECT =      64.0000    total number of electrons
   NUPDOWN=      -1.0000    fix difference up-down

 DOS related values:
   EMIN   =  10.00;   EMAX   =-10.00  energy-range for DOS
   EFERMI =   0.00
   ISMEAR =     0;   SIGMA  =   0.05  broadening in eV -4-tet -1-fermi 0-gaus

 Electronic relaxation 2 (details)
   IALGO  =     38    algorithm
   LDIAG  =      T    sub-space diagonalisation (order eigenvalues)
   LSUBROT=      F    optimize rotation matrix (better conditioning)
   TURBO    =      0    0=normal 1=particle mesh
   IRESTART =      0    0=no restart 2=restart with 2 vectors
   NREBOOT  =      0    no. of reboots
   NMIN     =      0    reboot dimension
   EREF     =   0.00    reference energy to select bands
   IMIX   =      4    mixing-type and parameters
     AMIX     =   0.40;   BMIX     =  1.00
     AMIX_MAG =   1.60;   BMIX_MAG =  1.00
     AMIN     =   0.10
     WC   =   100.;   INIMIX=   1;  MIXPRE=   1;  MAXMIX= -45

 Intra band minimization:
   WEIMIN = 0.0010     energy-eigenvalue tresh-hold
   EBREAK =  0.60E-06  absolut break condition
   DEPER  =   0.30     relativ break condition

   TIME   =   0.40     timestep for ELM

  volume/ion in A,a.u.               =      23.38       157.79
  Fermi-wavevector in a.u.,A,eV,Ry     =   0.908807  1.717396 11.237461  0.825930
  Thomas-Fermi vector in A             =   2.032777

 Write flags
   LWAVE        =      F    write WAVECAR
   LDOWNSAMPLE  =      F    k-point downsampling of WAVECAR
   LCHARG       =      F    write CHGCAR
   LVTOT        =      F    write LOCPOT, total local potential
   LVHAR        =      F    write LOCPOT, Hartree potential only
   LELF         =      F    write electronic localiz. function (ELF)
   LORBIT       =     10    0 simple, 1 ext, 2 COOP (PROOUT), +10 PAW based schemes

 Dipole corrections
   LMONO  =      F    monopole corrections only (constant potential shift)
[...]
  Direction    XX          YY          ZZ          XY          YZ          ZX
  Alpha Z    35.45758    35.45758    35.45758
  Ewald    -665.10358  -688.58152  -684.84990    -0.00010    -0.00000    -0.00000
  Hartree   167.99490   161.56464   150.85476     0.00001    -0.00000    -0.00000
  E(xc)    -209.66879  -209.77482  -209.75789    -0.00000     0.00000    -0.00000
  Local    -563.61574  -536.59294  -524.71711     0.00004     0.00000    -0.00000
  n-local   653.39076   653.62613   654.24006    -0.09580    -0.09979    -0.04871
  augment  -140.79369  -141.06595  -140.64374    -0.00000    -0.00000    -0.00000
  Kinetic   704.77230   709.12701   701.78452    -0.35639     0.03356     0.01009
  Fock        0.00000     0.00000     0.00000     0.00000     0.00000     0.00000
  Total     -17.56626   -16.23988   -17.63172     0.00000     0.00000     0.00000
  in kB     -75.23159   -69.55106   -75.51197     0.00000     0.00000     0.00000

 VOLUME and BASIS-vectors are now :
  energy-cutoff  :      300.00
  volume of cell :      374.10
      direct lattice vectors                 reciprocal lattice vectors
     6.589573760  0.000000000  0.000000000     0.151754884  0.000000000  0.000000000
     0.000000000  6.869532370  0.000000000     0.000000000  0.145570316  0.000000000
     0.000000000  0.000000000  8.264280290     0.000000000  0.000000000  0.121002672

[...]

 FORCES acting on ions
    electron-ion (+dipol)            ewald-force                    non-local-force                 convergence-correction
   -.128E+00 -.132E+01 0.572E+00   0.151E+00 0.116E+01 -.491E+00   -.267E-01 0.122E+00 -.579E-01   -.609E-04 0.469E-04 0.200E-04
   -.128E+00 0.132E+01 -.572E+00   0.151E+00 -.116E+01 0.491E+00   -.267E-01 -.122E+00 0.579E-01   -.586E-04 -.469E-04 -.199E-04
   -.128E+00 0.132E+01 0.572E+00   0.151E+00 -.116E+01 -.491E+00   -.267E-01 -.122E+00 -.579E-01   -.586E-04 -.469E-04 0.199E-04
   -.128E+00 -.132E+01 -.572E+00   0.151E+00 0.116E+01 0.491E+00   -.267E-01 0.122E+00 0.579E-01   -.609E-04 0.469E-04 -.200E-04
   -.105E+01 -.141E+00 -.945E+00   0.888E+00 0.206E+00 0.817E+00   0.106E+00 -.279E-01 0.967E-01   0.472E-04 0.325E-03 0.823E-04
   -.105E+01 0.141E+00 0.945E+00   0.888E+00 -.205E+00 -.817E+00   0.106E+00 0.279E-01 -.967E-01   0.362E-04 -.325E-03 -.825E-04
   -.105E+01 0.141E+00 -.945E+00   0.888E+00 -.205E+00 0.817E+00   0.106E+00 0.279E-01 0.967E-01   0.362E-04 -.325E-03 0.825E-04
   -.105E+01 -.141E+00 0.945E+00   0.888E+00 0.206E+00 -.817E+00   0.106E+00 -.279E-01 -.967E-01   0.472E-04 0.325E-03 -.823E-04
   0.143E+02 -.121E+02 0.201E+02   -.162E+02 0.135E+02 -.225E+02   0.253E+01 -.173E+01 0.309E+01   -.439E-02 0.327E-02 -.622E-02
   0.143E+02 0.121E+02 -.201E+02   -.162E+02 -.135E+02 0.225E+02   0.253E+01 0.173E+01 -.309E+01   -.443E-02 -.327E-02 0.622E-02
   0.143E+02 0.121E+02 0.201E+02   -.162E+02 -.135E+02 -.225E+02   0.253E+01 0.173E+01 0.309E+01   -.443E-02 -.327E-02 -.622E-02
   0.143E+02 -.121E+02 -.201E+02   -.162E+02 0.135E+02 0.225E+02   0.253E+01 -.173E+01 -.309E+01   -.439E-02 0.327E-02 0.622E-02
   -.132E+02 -.878E+01 0.205E+02   0.152E+02 0.998E+01 -.230E+02   -.250E+01 -.150E+01 0.323E+01   0.349E-02 0.171E-02 -.651E-02
   -.132E+02 0.878E+01 -.205E+02   0.152E+02 -.998E+01 0.230E+02   -.250E+01 0.150E+01 -.323E+01   0.353E-02 -.171E-02 0.651E-02
   -.132E+02 0.878E+01 0.205E+02   0.152E+02 -.998E+01 -.230E+02   -.250E+01 0.150E+01 0.323E+01   0.353E-02 -.171E-02 -.651E-02
   -.132E+02 -.878E+01 -.205E+02   0.152E+02 0.998E+01 0.230E+02   -.250E+01 -.150E+01 -.323E+01   0.349E-02 0.171E-02 0.651E-02
   -.414E+00 0.699E-04 0.170E-03   0.000E+00 -.355E-14 -.711E-14   0.457E+00 -.666E-15 -.444E-15   -.365E-02 -.387E-06 0.373E-13

 POSITION                                       TOTAL-FORCE (eV/Angst)
      0.78817      6.27607      5.13696        -0.006676     -0.033935      0.023067
      4.08296      0.59346      3.12732        -0.006676      0.033935     -0.023067
      4.08296      4.02823      1.00482        -0.006676      0.033935      0.023067
      0.78817      2.84130      7.25946        -0.006676     -0.033935     -0.023067
      4.10353      3.93861      5.17182        -0.053872      0.036788     -0.031487
      0.80874      2.93092      3.09246        -0.053872     -0.036788      0.031487
      0.80874      6.36568      1.03968        -0.053872     -0.036788     -0.031487
      4.10353      0.50385      7.22460        -0.053872      0.036788      0.031487
      3.33323      6.22797      5.24319         0.615664     -0.392034      0.687574
      0.03844      0.64156      3.02109         0.615664      0.392034     -0.687574
      0.03844      4.07633      1.11105         0.615664      0.392034      0.687574
      3.33323      2.79321      7.15323         0.615664     -0.392034     -0.687574
      6.52253      0.45833      7.28242        -0.555116     -0.299931      0.727318
      3.22775      6.41120      0.98186        -0.555116      0.299931     -0.727318
      3.22775      2.97644      3.15028        -0.555116      0.299931      0.727318
      6.52253      3.89310      5.11400        -0.555116     -0.299931     -0.727318
    total drift:                                0.038973      0.000069      0.000170

  FREE ENERGIE OF THE ION-ELECTRON SYSTEM (eV)
  free  energy   TOTEN  =       -74.63475829 eV

  energy  without entropy=      -74.63475829  energy(sigma->0) =      -74.63475829

[...]

 d Force = 0.6794636E-01[ 0.618E-01, 0.741E-01]  d Energy = 0.5569697E+00-0.489E+00
 d Force =-0.2300110E+01[-0.235E+01,-0.225E+01]  d Ewald  = 0.1896697E+02-0.213E+02

 Steepest descent step on ions:
 trial-energy change:   -0.556970  1 .order   -0.553532   -0.607446   -0.499619
  (g-gl).g = 0.607E+00      g.g   = 0.607E+00  gl.gl    = 0.000E+00
 g(Force)  = 0.749E-01   g(Stress)= 0.533E+00 ortho     = 0.000E+00
 gamma     =   0.00000
 trial     =   1.00000
 opt step  =   3.71021  (harmonic =   5.63354) maximal distance =0.02603660
 next E    =   -75.937192   (d E  =  -1.30243)

[...]

 d Force = 0.1089029E+00[ 0.533E-01, 0.164E+00]  d Energy = 0.9219482E+00-0.813E+00
 d Force =-0.6601885E+01[-0.696E+01,-0.624E+01]  d Ewald  = 0.5315191E+02-0.598E+02

[...]

 E-fermi :   2.1469     XC(G=0):  -8.4930     alpha+bet :-10.0025

[...]

 d Force = 0.9321298E-02[-0.419E-02, 0.228E-01]  d Energy = 0.6623324E-01-0.569E-01
 d Force =-0.3048839E+01[-0.312E+01,-0.298E+01]  d Ewald  = 0.2311709E+02-0.262E+02

[...]

 eigenvalue-minimisations  :   798
 total energy-change (2. order) :-0.1454486E-01  (-0.2494426E-01)
 number of electron      64.0000012 magnetization
 augmentation part       -6.6422811 magnetization

[...]

 Broyden mixing:
  rms(total) = 0.12527E-01    rms(broyden)= 0.12526E-01
  rms(prec ) = 0.13523E-01
  weight for this iteration     100.00

 eigenvalues of (default mixing * dielectric matrix)
  average eigenvalue GAMMA=   1.1225
  1.1225  1.1225

[...]

--------------------------------------- Iteration      5(   4)  ---------------------------------------

 eigenvalue-minimisations  :   546
 total energy-change (2. order) : 0.7363773E-04  (-0.8683046E-05)
 number of electron      64.0000012 magnetization
 augmentation part       -6.6207758 magnetization

 Free energy of the ion-electron system (eV)
  alpha Z        PSCENC =        41.08444348
  Ewald energy   TEWEN  =     -2129.33335849
  -Hartree energ DENC   =      -446.31410865
  -exchange      EXHF   =         0.00000000
  -V(xc)+E(xc)   XCENC  =       -18.55096622
  PAW double counting   =      5739.93606311    -5566.46479478
  entropy T*S    EENTRO =        -0.00000000
  eigenvalues    EBANDS =      -146.41468620
  atomic energy  EATOM  =      2449.87356359
  Solvation  Ediel_sol  =         0.00000000
  free energy    TOTEN  =       -76.18384414 eV

  energy without entropy =      -76.18384414  energy(sigma->0) =      -76.18384414

 average (electrostatic) potential at core
  the test charge radii are     0.9748  1.0406  0.9698
  (the norm of the test charge is              1.0000)
       1 -26.3249       2 -26.3250       3 -26.3250       4 -26.3249       5 -77.3390
       6 -77.3389       7 -77.3389       8 -77.3390       9 -87.6725      10 -87.6725
      11 -87.6725      12 -87.6725      13 -87.6758      14 -87.6758      15 -87.6758
      16 -87.6758

 E-fermi :   2.0814     XC(G=0):  -8.4677     alpha+bet : -9.9319

[...]

 k-point     8 :       0.3333    0.3333    0.3333
  band No.  band energies     occupation
      1      -9.8265      2.00000
      2      -9.6710      2.00000
      3      -9.4072      2.00000
      4      -9.2804      2.00000
      5      -9.0861      2.00000
      6      -9.0453      2.00000
      7      -8.9725      2.00000
      8      -8.9592      2.00000
      9      -2.7928      2.00000
     10      -2.6238      2.00000
     11      -2.1171      2.00000
     12      -1.9494      2.00000
     13      -0.8432      2.00000
     14      -0.7073      2.00000
     15      -0.5494      2.00000
     16      -0.4347      2.00000
     17      -0.2315      2.00000
     18      -0.1115      2.00000
     19       0.1069      2.00000
     20       0.3248      2.00000
     21       0.3428      2.00000
     22       0.4902      2.00000
     23       0.6593      2.00000
     24       0.7046      2.00000
     25       0.8714      2.00000
     26       0.9744      2.00000
     27       1.2005      2.00000
     28       1.3373      2.00000
     29       1.5038      2.00000
     30       1.5413      2.00000
     31       1.6083      2.00000
     32       1.7278      2.00000
     33       6.2405      0.00000
     34       6.6166      0.00000
     35       6.7747      0.00000
     36       6.8952      0.00000
     37       7.1335      0.00000
     38       7.3948      0.00000
     39       7.5748      0.00000
     40       7.6863      0.00000
     41       8.0354      0.00000
     42       8.1236      0.00000

 soft charge-density along one line, spin component           1
         0         1         2         3         4         5         6         7         8         9
 total charge-density along one line

------------------------ aborting loop because EDIFF is reached ----------------------------------------

[...]

  FORCE on cell =-STRESS in cart. coord.  units (eV):
  Direction    XX          YY          ZZ          XY          YZ          ZX
  Alpha Z    41.08444    41.08444    41.08444
  Ewald    -694.20982  -716.69734  -718.42928    -0.00011    -0.00000     0.00000
  Hartree   157.43551   150.42040   138.71218     0.00001    -0.00000    -0.00000
  E(xc)    -214.01599  -214.13087  -214.18351    -0.00000     0.00000    -0.00000
  Local    -538.97508  -511.60856  -494.78429     0.00004    -0.00000    -0.00000
  n-local   664.92716   665.02865   666.34879    -0.07333    -0.08388    -0.03900
  augment  -140.21752  -140.36599  -140.20467    -0.00000     0.00000     0.00000
  Kinetic   723.78395   726.21949   722.16107    -0.39364     0.13340     0.07146
  Fock        0.00000     0.00000     0.00000     0.00000     0.00000     0.00000
  Total      -0.18734    -0.04977     0.70473     0.00000     0.00000     0.00000
  in kB      -0.92966    -0.24698     3.49715     0.00000     0.00000     0.00000

 VOLUME and BASIS-vectors are now :
  energy-cutoff  :      300.00
  volume of cell :      322.87
      direct lattice vectors                 reciprocal lattice vectors
     6.266128042  0.000000000  0.000000000     0.159588185  0.000000000  0.000000000
     0.000000000  6.557805104  0.000000000     0.000000000  0.152490046  0.000000000
     0.000000000  0.000000000  7.857120693     0.000000000  0.000000000  0.127273086

  length of vectors
     6.266128042  6.557805104  7.857120693     0.159588185  0.152490046  0.127273086

 FORCES acting on ions
    electron-ion (+dipol)            ewald-force                    non-local-force                 convergence-correction
   -.160E+00 -.155E+01 0.550E+00   0.191E+00 0.140E+01 -.472E+00   -.386E-01 0.150E+00 -.655E-01   0.134E-05 0.193E-03 0.875E-05
   -.160E+00 0.155E+01 -.550E+00   0.191E+00 -.140E+01 0.472E+00   -.386E-01 -.150E+00 0.655E-01   0.135E-05 -.193E-03 -.875E-05
   -.160E+00 0.155E+01 0.550E+00   0.191E+00 -.140E+01 -.472E+00   -.386E-01 -.150E+00 -.655E-01   0.135E-05 -.193E-03 0.875E-05
   -.160E+00 -.155E+01 -.550E+00   0.191E+00 0.140E+01 0.472E+00   -.386E-01 0.150E+00 0.655E-01   0.134E-05 0.193E-03 -.875E-05
   -.946E+00 -.113E+01 -.111E+01   0.799E+00 0.104E+01 0.954E+00   0.148E+00 0.951E-01 0.173E+00   0.105E-03 0.577E-04 -.399E-04
   -.946E+00 0.113E+01 0.111E+01   0.800E+00 -.104E+01 -.954E+00   0.148E+00 -.951E-01 -.173E+00   0.105E-03 -.576E-04 0.399E-04
   -.946E+00 0.113E+01 -.111E+01   0.800E+00 -.104E+01 0.954E+00   0.148E+00 -.951E-01 0.173E+00   0.105E-03 -.576E-04 -.399E-04
   -.946E+00 -.113E+01 0.111E+01   0.799E+00 0.104E+01 -.954E+00   0.148E+00 0.951E-01 -.173E+00   0.105E-03 0.577E-04 0.399E-04
   0.180E+02 -.147E+02 0.256E+02   -.194E+02 0.157E+02 -.273E+02   0.138E+01 -.102E+01 0.176E+01   -.489E-02 0.392E-02 -.672E-02
   0.180E+02 0.147E+02 -.256E+02   -.194E+02 -.157E+02 0.273E+02   0.138E+01 0.102E+01 -.176E+01   -.489E-02 -.392E-02 0.672E-02
   0.180E+02 0.147E+02 0.256E+02   -.194E+02 -.157E+02 -.273E+02   0.138E+01 0.102E+01 0.176E+01   -.489E-02 -.392E-02 -.672E-02
   0.180E+02 -.147E+02 -.256E+02   -.194E+02 0.157E+02 0.273E+02   0.138E+01 -.102E+01 -.176E+01   -.489E-02 0.392E-02 0.672E-02
   -.170E+02 -.112E+02 0.262E+02   0.184E+02 0.121E+02 -.279E+02   -.142E+01 -.888E+00 0.177E+01   0.406E-02 0.238E-02 -.684E-02
   -.170E+02 0.112E+02 -.262E+02   0.184E+02 -.121E+02 0.279E+02   -.142E+01 0.888E+00 -.177E+01   0.406E-02 -.238E-02 0.684E-02
   -.170E+02 0.112E+02 0.262E+02   0.184E+02 -.121E+02 -.279E+02   -.142E+01 0.888E+00 0.177E+01   0.406E-02 -.238E-02 -.684E-02
   -.170E+02 -.112E+02 -.262E+02   0.184E+02 0.121E+02 0.279E+02   -.142E+01 -.888E+00 -.177E+01   0.406E-02 0.238E-02 0.684E-02
   -.310E+00 0.102E-03 0.877E-04   0.355E-14 0.000E+00 0.355E-14   0.309E+00 0.000E+00 0.222E-15   -.291E-02 0.179E-07 0.389E-12

 POSITION                                       TOTAL-FORCE (eV/Angst)
      0.74920      5.98981      4.88487        -0.007903      0.006075      0.012394
      3.88226      0.56800      2.97225        -0.007903     -0.006075     -0.012394
      3.88226      3.84690      0.95631        -0.007903     -0.006075      0.012394
      0.74920      2.71090      6.90081        -0.007903      0.006075     -0.012394
      3.89979      3.76148      4.91566         0.002570      0.005346      0.018415
      0.76673      2.79633      2.94146         0.002570     -0.005346     -0.018415
      0.76673      6.07523      0.98710         0.002570     -0.005346      0.018415
      3.89979      0.48257      6.87002         0.002570      0.005346     -0.018415
      3.19615      5.92841      5.01450        -0.002949     -0.044497      0.011141
      0.06309      0.62939      2.84262        -0.002949      0.044497     -0.011141
      0.06309      3.90829      1.08594        -0.002949      0.044497      0.011141
      3.19615      2.64951      6.77118        -0.002949     -0.044497     -0.011141
      6.17845      0.42457      6.95498         0.008282     -0.018924      0.007106
      3.04539      6.13324      0.90214         0.008282      0.018924     -0.007106
      3.04539      2.85433      3.02642         0.008282      0.018924      0.007106
      6.17845      3.70347      4.83070         0.008282     -0.018924     -0.007106
    total drift:                               -0.003933      0.000102      0.000088

  FREE ENERGIE OF THE ION-ELECTRON SYSTEM (eV)
  free  energy   TOTEN  =       -76.18384414 eV

  energy  without entropy=      -76.18384414  energy(sigma->0) =      -76.18384414

 d Force = 0.2823337E-03[-0.245E-03, 0.810E-03]  d Energy = 0.3934671E-02-0.365E-02
 d Force = 0.6003116E+00[ 0.598E+00, 0.603E+00]  d Ewald  =-0.4434770E+01 0.504E+01

 reached required accuracy - stopping structural energy minimisation

 total charge

# of ion       s       p       d       tot
    1        0.088   0.156   0.000   0.244
    2        0.087   0.157   0.000   0.244
    3        0.087   0.157   0.000   0.244
    4        0.087   0.157   0.000   0.244
    5        0.371   0.367   0.000   0.737
    6        0.372   0.366   0.000   0.738
    7        0.371   0.367   0.000   0.738
    8        0.371   0.367   0.000   0.738
    9        1.315   2.491   0.000   3.806
   10        1.315   2.490   0.000   3.805
   11        1.315   2.490   0.000   3.804
   12        1.315   2.490   0.000   3.804
   13        1.314   2.497   0.000   3.811
   14        1.314   2.497   0.000   3.811
   15        1.314   2.498   0.000   3.811
   16        1.314   2.497   0.000   3.811
tot         12.347  22.042   0.000  34.390