 vasp.5.4.4.18Apr17-6-g9f103f2a35 (build Oct 27 2022 13:04:57) complex

 executed on             LinuxIFC date 2024.06.29  12:35:17

 INCAR:
 POTCAR:    PAW_PBE K_pv 17Jan2003
 POTCAR:    PAW_PBE Sc 04Feb2005
 POTCAR:    PAW_PBE S 06Sep2000

 POTCAR:    PAW_PBE K_pv 17Jan2003
   VRHFIN =K:  p6s1

   TITEL  = PAW_PBE K_pv 17Jan2003
   POMASS =   39.098; ZVAL   =    7.000    mass and valenz
   ENMAX  =  116.731; ENMIN  =   87.548 eV

 POTCAR:    PAW_PBE Sc 04Feb2005
   VRHFIN =Sc: 3p4s3d

   TITEL  = PAW_PBE Sc 04Feb2005
   POMASS =   44.956; ZVAL   =    3.000    mass and valenz
   ENMAX  =  154.763; ENMIN  =  116.072 eV

 POTCAR:    PAW_PBE S 06Sep2000
   VRHFIN =S : s2p4

   TITEL  = PAW_PBE S 06Sep2000
   POMASS =   32.066; ZVAL   =    6.000    mass and valenz
   ENMAX  =  258.689; ENMIN  =  194.016 eV

 Optimization of the real space projectors (new method)

 maximal supplied QI-value         = 12.09
 optimisation between [QCUT,QGAM] = [  8.83, 17.66] = [ 21.83, 87.31] Ry
 Optimized for a Real-space Cutoff    1.69 Angstroem

   l    n(q)    QCUT    max X(q) W(low)/X(q) W(high)/X(q)  e(spline)
   1      8     8.829    42.457    0.27E-03    0.59E-03    0.25E-06
   1      8     8.829    43.305    0.28E-03    0.61E-03    0.26E-06
   0      9     8.829    47.210    0.17E-02    0.12E-03    0.43E-06
   0      9     8.829    15.951    0.11E-02    0.76E-04    0.28E-06
   2      8     8.829     5.674    0.29E-03    0.69E-04    0.39E-07
 Optimization of the real space projectors (new method)

[...]

   l    n(q)    QCUT    max X(q) W(low)/X(q) W(high)/X(q)  e(spline)
   2      8     8.855   127.680    0.85E-03    0.55E-03    0.13E-06
   2      8     8.855   113.778    0.85E-03    0.55E-03    0.13E-06
   0      9     8.855    22.778    0.87E-04    0.17E-03    0.16E-06
   0      9     8.855    11.292    0.61E-04    0.12E-03    0.12E-06
   1      9     8.855    11.256    0.72E-04    0.28E-04    0.22E-07
 Optimization of the real space projectors (new method)

 maximal supplied QI-value         = 19.84
 optimisation between [QCUT,QGAM] = [  8.73, 17.66] = [ 21.34, 87.33] Ry
 Optimized for a Real-space Cutoff    1.22 Angstroem

   l    n(q)    QCUT    max X(q) W(low)/X(q) W(high)/X(q)  e(spline)
   0      6     8.731   187.594    0.15E-02    0.56E-03    0.90E-07
   0      6     8.731   164.243    0.15E-02    0.56E-03    0.89E-07
   1      6     8.731    67.533    0.37E-03    0.20E-02    0.11E-06
   1      6     8.731    50.729    0.36E-03    0.19E-02    0.10E-06
  PAW_PBE K_pv 17Jan2003                :
  PAW_PBE Sc 04Feb2005                  :
  PAW_PBE S 06Sep2000                   :

 POSCAR: K2 Sc6 S10
  positions in direct lattice
 exchange correlation table for  LEXCH =        8
   RHO(1)=    0.500       N(1)  =     2000
   RHO(2)=  100.500       N(2)  =     4000

 ion  position               nearest neighbor table
   1  0.745  0.334  0.174-  15 3.19  17 3.19  15 3.19  17 3.19  12 3.37   9 3.37  12 3.38  11 3.71
                             5 3.86   4 4.21   7 4.41   7 4.42   8 4.46   3 4.51   3 4.51   2 4.52
   2  0.255  0.666  0.826-  16 3.19  18 3.19  16 3.19  18 3.19  11 3.37  10 3.37  11 3.38  12 3.71
                             6 3.86   4 4.21   8 4.42   8 4.42   7 4.46   3 4.51   3 4.51   1 4.52
   3  0.500  0.000  1.000-   9 2.38  10 2.38  10 2.38   9 2.38  12 2.49  11 2.49   8 3.47   7 3.47
                             8 3.47   7 3.47   2 4.51   1 4.51   2 4.51   1 4.51
   4  0.500  0.500  0.500-  17 2.43  18 2.43  18 2.43  17 2.43  14 2.43  13 2.43   8 3.60   7 3.60
                             8 3.60   7 3.61   1 4.21   2 4.21
   5  0.836  0.940  0.389-  16 2.34  15 2.36  15 2.36   9 2.42  13 2.50  13 2.50   7 3.00   6 3.40
                             6 3.41   1 3.86
   6  0.164  0.060  0.611-  15 2.34  16 2.36  16 2.36  10 2.42  14 2.50  14 2.50   8 3.00   5 3.40
                             5 3.41   2 3.86
   7  0.021  0.732  0.225-  17 2.37  11 2.38  11 2.38   9 2.42  13 2.53  13 2.53   5 3.00   3 3.47
                             3 3.47   4 3.60   4 3.61   1 4.41   1 4.42   2 4.46
   8  0.979  0.268  0.775-  18 2.37  12 2.38  12 2.38  10 2.42  14 2.53  14 2.53   6 3.00   3 3.47
                             3 3.47   4 3.60   4 3.60   2 4.42   2 4.42   1 4.46
   9  0.927  0.993  0.152-   3 2.38   3 2.38   5 2.42   7 2.42   1 3.37
  10  0.073  0.007  0.848-   3 2.38   3 2.38   6 2.42   8 2.42   2 3.37
  11  0.597  0.732  0.074-   7 2.38   7 2.38   3 2.49   2 3.37   2 3.38   1 3.71
  12  0.403  0.268  0.926-   8 2.38   8 2.38   3 2.49   1 3.37   1 3.38   2 3.71
  13  0.427  0.756  0.389-   4 2.43   5 2.50   5 2.50   7 2.53   7 2.53
  14  0.573  0.244  0.611-   4 2.43   6 2.50   6 2.50   8 2.53   8 2.53
  15  0.256  0.104  0.382-   6 2.34   5 2.36   5 2.36   1 3.19   1 3.19
  16  0.743  0.896  0.618-   5 2.34   6 2.36   6 2.36   2 3.19   2 3.19
  17  0.083  0.487  0.347-   7 2.37   4 2.43   4 2.43   1 3.19   1 3.19
  18  0.917  0.513  0.653-   8 2.37   4 2.43   4 2.43   2 3.19   2 3.19

  LATTYP: Found a triclinic cell.
 ALAT       =    11.8574682033
 B/A-ratio  =     1.3714984827
 C/A-ratio  =     0.2970818413
 COS(alpha) =     0.0000774490
 COS(beta)  =     0.4456297909
 COS(gamma) =     0.7344375593

  Lattice vectors:

 A1 = (   2.9965195900,   5.2839992900,  10.1833086000)
 A2 = (  12.6871385200,   0.0006265700,  10.1737608900)
 A3 = (   0.0002148400,   3.5226384800,  -0.0000487600)

Analysis of symmetry for initial positions (statically):
 Subroutine PRICEL returns:
 Original cell was already a primitive cell.

 Routine SETGRP: Setting up the symmetry group for a
 triclinic supercell.

 Subroutine GETGRP returns: Found  1 space group operations
 (whereof  1 operations were pure point group operations)
 out of a pool of  2 trial point group operations.

The static configuration has the point symmetry C_1 .

Analysis of symmetry for dynamics (positions and initial velocities):
 Subroutine PRICEL returns:
 Original cell was already a primitive cell.

 Routine SETGRP: Setting up the symmetry group for a
 triclinic supercell.

 Subroutine GETGRP returns: Found  1 space group operations
 (whereof  1 operations were pure point group operations)
 out of a pool of  2 trial point group operations.

The dynamic configuration has the point symmetry C_1 .

 Subroutine INISYM returns: Found  1 space group operations
 (whereof  1 operations are pure point group operations),
 and found     1 'primitive' translations

 KPOINTS: pymatgen with grid density = 807 / numbe

Automatic generation of k-mesh.
Space group operators:
 irot       det(A)        alpha          n_x          n_y          n_z        tau_x        tau_y        tau_z
    1     1.000000     0.000001     1.000000     0.000000     0.000000     0.000000     0.000000     0.000000

 Subroutine IBZKPT returns following result:

 Found     12 irreducible k-points:

 Following reciprocal coordinates:
            Coordinates               Weight
  0.083333  0.250000  0.250000      2.000000
  0.250000  0.250000  0.250000      2.000000
  0.416667  0.250000  0.250000      2.000000
 -0.416667  0.250000  0.250000      2.000000
 -0.250000  0.250000  0.250000      2.000000
 -0.083333  0.250000  0.250000      2.000000
  0.083333 -0.250000  0.250000      2.000000
  0.250000 -0.250000  0.250000      2.000000
  0.416667 -0.250000  0.250000      2.000000
 -0.416667 -0.250000  0.250000      2.000000
 -0.250000 -0.250000  0.250000      2.000000
 -0.083333 -0.250000  0.250000      2.000000

 Following cartesian coordinates:
            Coordinates               Weight
 -0.021510 -0.023655 -0.014129      2.000000
 -0.012903 -0.070969 -0.008478      2.000000
 -0.004295 -0.118282 -0.002827      2.000000
 -0.047333  0.118285 -0.031082      2.000000
 -0.038725  0.070972 -0.025431      2.000000
 -0.030118  0.023658 -0.019780      2.000000
  0.030069 -0.023659 -0.029305      2.000000
  0.038677 -0.070972 -0.023654      2.000000
  0.047284 -0.118286 -0.018003      2.000000
  0.004246  0.118282 -0.046258      2.000000
  0.012854  0.070968 -0.040607      2.000000
  0.021462  0.023655 -0.034956      2.000000

 SYSTEM =  CIS
 POSCAR =  K2 Sc6 S10

 Startparameter for this run:
   NWRITE =      2    write-flag & timer
   PREC   = medium    normal or accurate (medium, high low for compatibility)
   ISTART =      0    job   : 0-new  1-cont  2-samecut
   ICHARG =      2    charge: 1-file 2-atom 10-const
   ISPIN  =      1    spin polarized calculation?
   LNONCOLLINEAR =      F non collinear calculations
   LSORBIT =      F    spin-orbit coupling
   INIWAV =      1    electr: 0-lowe 1-rand  2-diag
   LASPH  =      T    aspherical Exc in radial PAW
   METAGGA=      F    non-selfconsistent MetaGGA calc.

 Electronic Relaxation 1
   ENCUT  =  300.0 eV  22.05 Ry    4.70 a.u.   4.97 13.91 15.20*2*pi/ulx,y,z
   ENINI  =  300.0     initial cutoff
   ENAUG  =  335.1 eV  augmentation charge cutoff
   NELM   =     60;   NELMIN=  2; NELMDL= -5     # of ELM steps
   EDIFF  = 0.1E-03   stopping-criterion for ELM
   LREAL  =      T    real-space projection
   NLSPLINE    = F    spline interpolate recip. space projectors
   LCOMPAT=      F    compatible to vasp.4.4
   GGA_COMPAT  = T    GGA compatible to vasp.4.4-vasp.4.6
   LMAXPAW     = -100 max onsite density
   LMAXMIX     =    4 max onsite mixed and CHGCAR
   VOSKOWN=      0    Vosko Wilk Nusair interpolation
   ROPT   =   -0.00200  -0.00200  -0.00200
 Ionic relaxation
   EDIFFG = -.5E-01   stopping-criterion for IOM
   NSW    =     99    number of steps for IOM
   NBLOCK =      1;   KBLOCK =     99    inner block; outer block
   IBRION =      2    ionic relax: 0-MD 1-quasi-New 2-CG
   NFREE  =      1    steps in history (QN), initial steepest desc. (CG)
   ISIF   =      3    stress and relaxation
   IWAVPR =     11    prediction:  0-non 1-charg 2-wave 3-comb
   ISYM   =      2    0-nonsym 1-usesym 2-fastsym
   LCORR  =      T    Harris-Foulkes like correction to forces

   POTIM  = 0.1000    time-step for ionic-motion
   TEIN   =    0.0    initial temperature
   TEBEG  =    0.0;   TEEND  =   0.0 temperature during run
   SMASS  =  -3.00    Nose mass-parameter (am)
   estimated Nose-frequenzy (Omega)   =  0.10E-29 period in steps =****** mass=  -0.284E-27a.u.
   SCALEE = 1.0000    scale energy and forces
   NPACO  =    256;   APACO  = 16.0  distance and # of slots for P.C.
   PSTRESS=    0.0 pullay stress

  Mass of Ions in am
   POMASS =  39.10 44.96 32.07
  Ionic Valenz
   ZVAL   =   7.00  3.00  6.00
  Atomic Wigner-Seitz radii
  virtual crystal weights
   VCA    =   1.00  1.00  1.00
   NELECT =      92.0000    total number of electrons
   NUPDOWN=      -1.0000    fix difference up-down

 DOS related values:
   EMIN   =  10.00;   EMAX   =-10.00  energy-range for DOS
   EFERMI =   0.00
   ISMEAR =     0;   SIGMA  =   0.05  broadening in eV -4-tet -1-fermi 0-gaus

 Electronic relaxation 2 (details)
   IALGO  =     38    algorithm
   LDIAG  =      T    sub-space diagonalisation (order eigenvalues)
   LSUBROT=      F    optimize rotation matrix (better conditioning)
   TURBO    =      0    0=normal 1=particle mesh
   IRESTART =      0    0=no restart 2=restart with 2 vectors
   NREBOOT  =      0    no. of reboots
[...]
     -2.60886     -1.76134     -8.63305         1.593543      0.022335      0.583898
     -7.31859     -3.52279     -0.74616         1.485736     -0.012730      1.631372
     -5.36883     -3.52315     -9.42715        -1.488483      0.012871     -1.634924
     -8.49588     -3.52285     -3.95506        -0.489624      0.019338     -0.388318
     -4.19149     -3.52313     -6.21858         0.487402     -0.018656      0.387928
     -2.15568     -1.76060     -3.89267        -1.880615      0.013634      1.870446
    -10.53223     -5.28532     -6.28135         1.884695     -0.014048     -1.865598
     -5.75439     -1.76128     -3.52582         1.858454      0.016380      0.731338
     -6.93295     -5.28461     -6.64786        -1.861129     -0.017003     -0.729953
    total drift:                               -0.001310      0.000630     -0.001305

  FREE ENERGIE OF THE ION-ELECTRON SYSTEM (eV)
  free  energy   TOTEN  =      -109.70418317 eV

  energy  without entropy=     -109.70418317  energy(sigma->0) =     -109.70418317

[...]

 E-fermi :   3.3592     XC(G=0):  -9.5576     alpha+bet :-10.7706

[...]

 d Force = 0.3052301E+00[ 0.213E+00, 0.398E+00]  d Energy = 0.2533781E+01-0.223E+01
 d Force = 0.1186621E+02[ 0.112E+02, 0.125E+02]  d Ewald  =-0.6992424E+02 0.818E+02

 Steepest descent step on ions:
 trial-energy change:   -2.533781  1 .order   -2.578156   -3.337458   -1.818854
  (g-gl).g = 0.334E+01      g.g   = 0.334E+01  gl.gl    = 0.000E+00
 g(Force)  = 0.389E+00   g(Stress)= 0.295E+01 ortho     = 0.000E+00
 gamma     =   0.00000
 trial     =   1.00000
 opt step  =   2.19772  (harmonic =   2.19772) maximal distance =0.03996444
 next E    =  -113.371574   (d E  =  -3.66739)

[...]

 E-fermi :   2.7161     XC(G=0):  -9.2201     alpha+bet : -9.9475

[...]

 d Force =-0.4608805E-04[-0.570E-04,-0.352E-04]  d Energy = 0.8250972E-04-0.129E-03
 d Force =-0.8466722E-01[-0.847E-01,-0.846E-01]  d Ewald  = 0.5961629E+00-0.681E+00

[...]

 d Force =-0.1538872E-03[-0.180E-03,-0.128E-03]  d Energy =-0.5411924E-04-0.998E-04
 d Force =-0.1908115E+00[-0.191E+00,-0.191E+00]  d Ewald  = 0.1342356E+01-0.153E+01

[...]

 d Force = 0.3361444E-01[ 0.299E-01, 0.373E-01]  d Energy = 0.3495489E-01-0.134E-02
 d Force =-0.2153990E+00[-0.225E+00,-0.206E+00]  d Ewald  =-0.9494111E+00 0.734E+00

 Conjugate gradient step on ions:
 trial-energy change:   -0.034955  1 .order   -0.034950   -0.038828   -0.031072
  (g-gl).g = 0.286E-01      g.g   = 0.300E-01  gl.gl    = 0.334E+01
 g(Force)  = 0.287E-01   g(Stress)= 0.128E-02 ortho     = 0.139E-02
 gamma     =   0.00856
 trial     =   1.29521
 opt step  =   5.18085  (harmonic =   6.48474) maximal distance =0.03675516
 next E    =  -113.595784   (d E  =  -0.09720)

[...]

 d Force =-0.5572131E-02[-0.269E-01, 0.157E-01]  d Energy =-0.9173289E-02 0.360E-02
 d Force = 0.6257895E-01[-0.120E+00, 0.245E+00]  d Ewald  =-0.2487306E+01 0.255E+01

[...]

 d Force = 0.8468722E-02[-0.141E-02, 0.183E-01]  d Energy = 0.1152557E-01-0.306E-02
 d Force =-0.2034453E-01[-0.106E+00, 0.653E-01]  d Ewald  = 0.1734861E+01-0.176E+01

[...]

 d Force = 0.5002845E-02[ 0.458E-02, 0.542E-02]  d Energy = 0.7365066E-02-0.236E-02
 d Force = 0.8519360E-01[ 0.822E-01, 0.882E-01]  d Ewald  = 0.5025221E+01-0.494E+01

 Conjugate gradient step on ions:
 trial-energy change:   -0.007365  1 .order   -0.007622   -0.009401   -0.005844
  (g-gl).g = 0.314E-02      g.g   = 0.306E-02  gl.gl    = 0.364E-02
 g(Force)  = 0.162E-02   g(Stress)= 0.144E-02 ortho     =-0.468E-04
 gamma     =   0.86213
 trial     =   3.10949
 opt step  =   8.21733  (harmonic =   8.21733) maximal distance =0.01819417
 next E    =  -113.629670   (d E  =  -0.01242)

[...]

 d Force = 0.7774139E-03[ 0.842E-03, 0.713E-03]  d Energy = 0.1377269E-03 0.640E-03
 d Force = 0.2448396E-01[ 0.226E-01, 0.264E-01]  d Ewald  =-0.1600925E+01 0.163E+01

[...]

 d Force = 0.1428177E-02[-0.672E-03, 0.353E-02]  d Energy = 0.8800420E-03 0.548E-03
 d Force =-0.8373181E+00[-0.853E+00,-0.821E+00]  d Ewald  =-0.2502600E+01 0.167E+01

[...]

 d Force = 0.1048320E-03[ 0.780E-04, 0.132E-03]  d Energy = 0.1658994E-03-0.611E-04
 d Force = 0.1667006E+00[ 0.166E+00, 0.167E+00]  d Ewald  = 0.4932422E+00-0.327E+00

[...]

 d Force = 0.8692912E-03[ 0.711E-03, 0.103E-02]  d Energy = 0.1063573E-02-0.194E-03
 d Force =-0.6051378E+00[-0.608E+00,-0.602E+00]  d Ewald  = 0.1480332E+01-0.209E+01

 Conjugate gradient step on ions:
 trial-energy change:   -0.001064  1 .order   -0.001225   -0.001837   -0.000614
  (g-gl).g = 0.463E-03      g.g   = 0.487E-03  gl.gl    = 0.601E-03
 g(Force)  = 0.269E-03   g(Stress)= 0.218E-03 ortho     =-0.936E-04
 gamma     =   0.76934
 trial     =   4.42512
 opt step  =   6.64439  (harmonic =   6.64439) maximal distance =0.00493382
 next E    =  -113.656295   (d E  =  -0.00138)

[...]

 d Force = 0.2749031E-03[ 0.193E-03, 0.357E-03]  d Energy = 0.5427441E-04 0.221E-03
 d Force =-0.3057569E+00[-0.306E+00,-0.305E+00]  d Ewald  = 0.7411309E+00-0.105E+01

[...]

 eigenvalue-minimisations  :  2184
 total energy-change (2. order) :-0.1214057E-02  (-0.1704028E-02)
 number of electron      92.0000087 magnetization
 augmentation part        1.9762350 magnetization

[...]

 Broyden mixing:
  rms(total) = 0.86470E-02    rms(broyden)= 0.86467E-02
  rms(prec ) = 0.98161E-02
  weight for this iteration     100.00

 eigenvalues of (default mixing * dielectric matrix)
  average eigenvalue GAMMA=   1.2398
  1.2398  1.2398

[...]

--------------------------------------- Iteration     32(   4)  ---------------------------------------

 eigenvalue-minimisations  :  1540
 total energy-change (2. order) : 0.9565117E-04  (-0.4640044E-04)
 number of electron      92.0000087 magnetization
 augmentation part        1.9755154 magnetization

 Free energy of the ion-electron system (eV)
  alpha Z        PSCENC =       175.24191494
  Ewald energy   TEWEN  =     -3479.68389488
  -Hartree energ DENC   =      -677.82940869
  -exchange      EXHF   =         0.00000000
  -V(xc)+E(xc)   XCENC  =      -358.62455896
  PAW double counting   =      7800.06905952    -7232.07915677
  entropy T*S    EENTRO =        -0.00000000
  eigenvalues    EBANDS =      -277.71527390
  atomic energy  EATOM  =      3936.96380017
  Solvation  Ediel_sol  =         0.00000000
  free energy    TOTEN  =      -113.65751857 eV

  energy without entropy =     -113.65751857  energy(sigma->0) =     -113.65751857

 average (electrostatic) potential at core
  the test charge radii are     1.3383  1.3152  0.9698
  (the norm of the test charge is              1.0000)
       1 -11.1073       2 -11.1075       3 -43.5605       4 -43.5388       5 -43.4671
       6 -43.4670       7 -43.5090       8 -43.5083       9 -87.7556      10 -87.7546
      11 -87.5930      12 -87.5931      13 -87.9458      14 -87.9457      15 -87.5653
      16 -87.5649      17 -87.4040      18 -87.4037

 E-fermi :   2.5588     XC(G=0):  -9.1693     alpha+bet : -9.8122

[...]

 k-point    12 :      -0.0833   -0.2500    0.2500
  band No.  band energies     occupation
      1     -10.6232      2.00000
      2     -10.6140      2.00000
      3     -10.5618      2.00000
      4     -10.5426      2.00000
      5     -10.4902      2.00000
      6     -10.4895      2.00000
      7      -9.8063      2.00000
      8      -9.6848      2.00000
      9      -9.1650      2.00000
     10      -9.0416      2.00000
     11      -8.8523      2.00000
     12      -8.7498      2.00000
     13      -8.7003      2.00000
     14      -8.6761      2.00000
     15      -8.6107      2.00000
     16      -8.4348      2.00000
     17      -1.5340      2.00000
     18      -1.2048      2.00000
     19      -1.0345      2.00000
     20      -0.8428      2.00000
     21      -0.7534      2.00000
     22      -0.5058      2.00000
     23      -0.1913      2.00000
     24      -0.0373      2.00000
     25       0.0255      2.00000
     26       0.2154      2.00000
     27       0.3379      2.00000
     28       0.3616      2.00000
     29       0.4504      2.00000
     30       0.4888      2.00000
     31       0.6428      2.00000
     32       0.7739      2.00000
     33       0.8664      2.00000
     34       0.9675      2.00000
     35       1.0415      2.00000
     36       1.0840      2.00000
     37       1.1507      2.00000
     38       1.3344      2.00000
     39       1.3829      2.00000
     40       1.5837      2.00000
     41       1.6432      2.00000
     42       1.7205      2.00000
     43       1.9094      2.00000
     44       2.0824      2.00000
     45       2.1745      2.00000
     46       2.2969      2.00000
     47       4.1805      0.00000
     48       4.2879      0.00000
     49       4.6006      0.00000
     50       4.8528      0.00000
     51       4.8865      0.00000
     52       4.9259      0.00000
     53       4.9807      0.00000
     54       5.0810      0.00000
     55       5.1761      0.00000
     56       5.2546      0.00000

 soft charge-density along one line, spin component           1
         0         1         2         3         4         5         6         7         8         9
 total charge-density along one line

------------------------ aborting loop because EDIFF is reached ----------------------------------------

[...]

  FORCE on cell =-STRESS in cart. coord.  units (eV):
  Direction    XX          YY          ZZ          XY          YZ          ZX
  Alpha Z   175.24191   175.24191   175.24191
  Ewald   -1257.72916 -1059.79014 -1162.17346     0.18759     0.58342    11.29821
  Hartree   176.79825   288.22304   212.79352     0.22177     0.49948    14.37729
  E(xc)    -335.13510  -335.91157  -336.38524     0.00904     0.01988     0.18062
  Local    -346.06415  -651.52204  -478.78182    -0.42251    -1.10090   -25.66294
  n-local   729.34699   735.39552   739.44598    -0.14919    -0.07326    -0.56436
  augment  -124.05101  -125.17481  -124.42488    -0.00577     0.00261     0.34573
  Kinetic   981.81728   973.69609   974.53937     0.17010     0.04979    -0.05154
  Fock        0.00000     0.00000     0.00000     0.00000     0.00000     0.00000
  Total       0.22502     0.15801     0.25537     0.01102    -0.01899    -0.07699
  in kB       0.88238     0.61961     1.00141     0.04322    -0.07445    -0.30190

 VOLUME and BASIS-vectors are now :
  energy-cutoff  :      300.00
  volume of cell :      408.57
      direct lattice vectors                 reciprocal lattice vectors
     0.006281139 -3.721498403  0.001038455     0.048725502 -0.268617774  0.032095457
   -10.186056179 -1.843601655  0.034164583    -0.098049426 -0.000157544  0.028467830
    -3.122290290 -1.852498123-10.764101664    -0.000306502 -0.000026415 -0.092807938

  length of vectors
     3.721503849 10.351607352 11.359856098     0.274881432  0.102098639  0.092808448

 FORCES acting on ions
    electron-ion (+dipol)            ewald-force                    non-local-force                 convergence-correction
   0.432E+02 0.194E+00 -.559E+02   -.426E+02 -.187E+00 0.546E+02   -.617E+00 -.580E-02 0.133E+01   0.365E-03 0.141E-04 -.477E-02
   -.432E+02 -.177E+00 0.559E+02   0.426E+02 0.171E+00 -.545E+02   0.617E+00 0.501E-02 -.133E+01   0.117E-03 -.147E-04 0.471E-02
   -.146E-01 0.910E-02 -.473E-03   0.152E-01 -.869E-02 0.203E-02   0.813E-03 -.128E-02 0.136E-02   -.520E-03 -.175E-04 -.839E-03
   0.766E-02 0.421E-04 -.250E-02   -.761E-02 -.567E-04 0.224E-02   0.292E-03 -.253E-04 -.247E-03   -.328E-03 0.240E-04 0.267E-03
   -.500E+01 -.180E+00 0.215E+01   0.428E+01 0.175E+00 -.230E+01   0.728E+00 0.195E-01 0.129E+00   0.871E-02 0.120E-02 0.603E-03
   0.497E+01 0.173E+00 -.217E+01   -.425E+01 -.168E+00 0.232E+01   -.724E+00 -.182E-01 -.125E+00   -.905E-02 -.141E-02 0.436E-03
   -.217E+02 -.362E+00 -.107E+02   0.221E+02 0.340E+00 0.111E+02   -.334E+00 0.337E-01 -.351E+00   0.166E-02 0.150E-02 -.275E-02
   0.218E+02 0.366E+00 0.107E+02   -.221E+02 -.343E+00 -.111E+02   0.334E+00 -.339E-01 0.352E+00   -.224E-02 -.146E-02 0.226E-02
   0.309E+02 -.103E+00 -.885E+01   -.313E+02 0.694E-01 0.931E+01   0.437E+00 0.416E-01 -.438E+00   0.342E-03 0.193E-03 0.328E-02
   -.310E+02 0.921E-01 0.888E+01   0.314E+02 -.596E-01 -.933E+01   -.439E+00 -.411E-01 0.432E+00   -.186E-02 -.252E-03 -.296E-02
   -.752E+02 0.176E+00 -.297E+02   0.753E+02 -.147E+00 0.294E+02   -.431E-01 -.346E-01 0.325E+00   -.491E-02 0.144E-04 0.281E-02
   0.752E+02 -.173E+00 0.298E+02   -.753E+02 0.145E+00 -.294E+02   0.353E-01 0.320E-01 -.332E+00   0.561E-02 0.677E-04 -.376E-02
   -.106E+02 0.261E+00 0.220E+02   0.109E+02 -.252E+00 -.229E+02   -.325E+00 -.315E-01 0.920E+00   0.911E-03 -.338E-03 -.699E-03
   0.106E+02 -.250E+00 -.220E+02   -.110E+02 0.243E+00 0.229E+02   0.322E+00 0.298E-01 -.917E+00   -.365E-03 0.408E-03 0.635E-03
   0.422E+02 0.148E+00 -.289E+02   -.422E+02 -.136E+00 0.285E+02   0.293E-01 -.294E-01 0.414E+00   -.743E-02 0.276E-04 0.720E-02
   -.422E+02 -.169E+00 0.289E+02   0.422E+02 0.158E+00 -.285E+02   -.370E-01 0.352E-01 -.420E+00   0.683E-02 0.813E-05 -.679E-02
   -.351E+02 -.129E-01 -.338E+02   0.351E+02 0.139E-01 0.340E+02   0.141E-01 0.371E-02 -.177E+00   0.243E-02 -.212E-03 -.253E-02
   0.351E+02 0.970E-02 0.338E+02   -.351E+02 -.111E-01 -.340E+02   -.158E-01 -.380E-02 0.178E+00   -.217E-02 0.192E-03 0.290E-02
   0.102E-01 0.910E-03 0.483E-02   -.107E-12 -.148E-13 -.142E-13   -.168E-01 0.966E-03 -.616E-02   -.190E-02 -.507E-04 0.834E-06

 POSITION                                       TOTAL-FORCE (eV/Angst)
     -3.87827     -3.71287     -1.91045         0.018699      0.000889     -0.005325
     -9.42359     -3.70437     -8.81836        -0.018388     -0.001488      0.006124
      0.00334     -1.86042      0.00032         0.001340     -0.000983      0.002154
     -6.65112     -3.70868     -5.36443         0.000493     -0.000117     -0.000167
    -10.78626     -5.56320     -4.19599         0.016029      0.014864     -0.021889
     -2.51650     -1.85530     -6.53292        -0.010888     -0.015015      0.025818
     -8.02105     -1.83903     -2.30948         0.008408      0.012383      0.008349
     -5.28095     -5.57826     -8.41961        -0.006645     -0.012289     -0.007596
    -10.54958     -5.57017     -1.64220         0.036061      0.008169      0.025270
     -2.75229     -1.84716     -9.08661        -0.036446     -0.008940     -0.026925
     -7.59843     -3.69479     -0.64443         0.016347     -0.005572      0.020882
     -5.70298     -3.72247    -10.08430        -0.019874      0.003728     -0.024288
     -8.89324     -3.69576     -4.07558        -0.008499     -0.023581     -0.013109
     -4.40895     -3.72190     -6.65352         0.009066      0.022763      0.015042
     -2.28855     -1.85889     -4.05313        -0.006041     -0.017969      0.022938
    -11.01405     -5.55967     -6.67542         0.000825      0.023927     -0.027905
     -5.94995     -1.84668     -3.70446         0.023516      0.004314     -0.021416
     -7.35199     -5.57074     -7.02455        -0.024001     -0.005083      0.022045
    total drift:                               -0.008503      0.001826     -0.001328

  FREE ENERGIE OF THE ION-ELECTRON SYSTEM (eV)
  free  energy   TOTEN  =      -113.65751857 eV

  energy  without entropy=     -113.65751857  energy(sigma->0) =     -113.65751857

 d Force = 0.1506061E-02[ 0.106E-02, 0.195E-02]  d Energy = 0.1485336E-02 0.207E-04
 d Force =-0.2484475E-01[-0.285E-01,-0.212E-01]  d Ewald  =-0.3066896E+00 0.282E+00

 Conjugate gradient step on ions:
 trial-energy change:   -0.001485  1 .order   -0.001561   -0.002073   -0.001048
  (g-gl).g = 0.292E-03      g.g   = 0.417E-03  gl.gl    = 0.487E-03
 g(Force)  = 0.349E-03   g(Stress)= 0.684E-04 ortho     = 0.146E-04
 gamma     =   0.59872
 trial     =   4.86897
 opt step  =   9.84566  (harmonic =   9.84566) maximal distance =0.00980263
 next E    =  -113.658129   (d E  =  -0.00210)

 reached required accuracy - stopping structural energy minimisation

 total charge

# of ion       s       p       d       tot
    1        0.060   6.054   0.064   6.178
    2        0.060   6.054   0.064   6.178
    3        0.367   0.611   1.360   2.338
    4        0.358   0.589   1.321   2.268
    5        0.376   0.617   1.407   2.401
    6        0.376   0.617   1.407   2.401
    7        0.367   0.588   1.373   2.327
    8        0.367   0.588   1.373   2.328
    9        1.330   2.486   0.000   3.816
   10        1.330   2.486   0.000   3.816
   11        1.328   2.450   0.000   3.778
   12        1.328   2.450   0.000   3.778
   13        1.325   2.470   0.000   3.795
   14        1.325   2.470   0.000   3.795
   15        1.334   2.472   0.000   3.806
   16        1.334   2.472   0.000   3.806
   17        1.331   2.457   0.000   3.788
   18        1.331   2.457   0.000   3.788
tot         15.626  40.390   8.369  64.386