 vasp.5.4.4.18Apr17-6-g9f103f2a35 (build Oct 27 2022 13:04:57) complex

 executed on             LinuxIFC date 2024.06.29  20:04:36

 INCAR:
 POTCAR:    PAW_PBE K_pv 17Jan2003
 POTCAR:    PAW_PBE Bi 08Apr2002
 POTCAR:    PAW_PBE Se 06Sep2000

 POTCAR:    PAW_PBE K_pv 17Jan2003
   VRHFIN =K:  p6s1

   TITEL  = PAW_PBE K_pv 17Jan2003
   POMASS =   39.098; ZVAL   =    7.000    mass and valenz
   ENMAX  =  116.731; ENMIN  =   87.548 eV

 POTCAR:    PAW_PBE Bi 08Apr2002
   VRHFIN =Bi:

   TITEL  = PAW_PBE Bi 08Apr2002
   POMASS =  208.980; ZVAL   =    5.000    mass and valenz
   ENMAX  =  105.037; ENMIN  =   78.777 eV

 POTCAR:    PAW_PBE Se 06Sep2000
   VRHFIN =Se: s2p4

   TITEL  = PAW_PBE Se 06Sep2000
   POMASS =   78.960; ZVAL   =    6.000    mass and valenz
   ENMAX  =  211.555; ENMIN  =  158.666 eV

 Optimization of the real space projectors (new method)

 maximal supplied QI-value         = 12.09
 optimisation between [QCUT,QGAM] = [  8.83, 17.66] = [ 21.83, 87.31] Ry
 Optimized for a Real-space Cutoff    1.69 Angstroem

   l    n(q)    QCUT    max X(q) W(low)/X(q) W(high)/X(q)  e(spline)
   1      8     8.829    42.457    0.27E-03    0.59E-03    0.25E-06
   1      8     8.829    43.305    0.28E-03    0.61E-03    0.26E-06
   0      9     8.829    47.210    0.17E-02    0.12E-03    0.43E-06
   0      9     8.829    15.951    0.11E-02    0.76E-04    0.28E-06
   2      8     8.829     5.674    0.29E-03    0.69E-04    0.39E-07
 Optimization of the real space projectors (new method)

[...]

   l    n(q)    QCUT    max X(q) W(low)/X(q) W(high)/X(q)  e(spline)
   0      8     8.855    93.365    0.12E-03    0.22E-03    0.92E-07
   0      8     8.855    75.373    0.13E-03    0.24E-03    0.10E-06
   1      8     8.855    32.978    0.17E-02    0.62E-03    0.17E-06
   1      8     8.855    35.433    0.19E-02    0.68E-03    0.19E-06
   2      7     8.855     8.108    0.22E-03    0.34E-03    0.64E-07
 Optimization of the real space projectors (new method)

 maximal supplied QI-value         = 17.95
 optimisation between [QCUT,QGAM] = [  8.80, 17.59] = [ 21.67, 86.68] Ry
 Optimized for a Real-space Cutoff    1.19 Angstroem

   l    n(q)    QCUT    max X(q) W(low)/X(q) W(high)/X(q)  e(spline)
   0      6     8.797   133.320    0.14E-02    0.11E-02    0.95E-07
   0      6     8.797   111.601    0.15E-02    0.12E-02    0.10E-06
   1      6     8.797    47.222    0.19E-02    0.96E-03    0.11E-06
   1      6     8.797    33.775    0.19E-02    0.99E-03    0.11E-06
   2      5     8.797     3.720    0.16E-02    0.14E-02    0.40E-07
  PAW_PBE K_pv 17Jan2003                :
  PAW_PBE Bi 08Apr2002                  :
  PAW_PBE Se 06Sep2000                  :

 POSCAR: K4 Bi8 Se14
  positions in direct lattice
 exchange correlation table for  LEXCH =        8
   RHO(1)=    0.500       N(1)  =     2000
   RHO(2)=  100.500       N(2)  =     4000

 ion  position               nearest neighbor table
   1  0.250  0.563  0.814-  13 3.43  18 3.52  14 3.66  14 3.66  19 3.73  19 3.73  26 3.75  26 3.75
                            10 4.29   8 4.45   3 4.87   3 4.87
   2  0.750  0.437  0.186-  14 3.43  17 3.52  13 3.66  13 3.66  20 3.73  20 3.73  25 3.75  25 3.75
                             9 4.29   7 4.45   4 4.87   4 4.87
   3  0.750  0.825  0.624-  16 3.43  16 3.43  23 3.44  23 3.44  19 3.54  26 3.74   7 4.22   1 4.87
                             1 4.87
   4  0.250  0.175  0.376-  15 3.43  15 3.43  24 3.44  24 3.44  20 3.54  25 3.74   8 4.22   2 4.87
                             2 4.87
   5  0.250  0.836  0.279-  23 2.86  17 2.91  17 2.91  15 3.00  15 3.00  21 3.06
   6  0.750  0.164  0.721-  24 2.86  18 2.91  18 2.91  16 3.00  16 3.00  22 3.06
   7  0.750  0.608  0.430-  26 2.86  23 2.96  23 2.96  25 2.99  25 2.99  17 3.03   3 4.22   2 4.45

   8  0.250  0.392  0.570-  25 2.86  24 2.96  24 2.96  26 2.99  26 2.99  18 3.03   4 4.22   1 4.45

   9  0.750  0.730  0.049-  13 2.79  13 2.79  17 2.94  19 2.99  21 3.21  21 3.21   2 4.29
  10  0.250  0.270  0.951-  14 2.79  14 2.79  18 2.94  20 2.99  22 3.21  22 3.21   1 4.29
  11  0.250  0.941  0.876-  16 2.80  19 2.94  19 2.94  22 3.01  22 3.01  21 3.18
  12  0.750  0.059  0.124-  15 2.80  20 2.94  20 2.94  21 3.01  21 3.01  22 3.18
  13  0.250  0.594  0.037-   9 2.79   9 2.79   1 3.43   2 3.66   2 3.66
  14  0.750  0.406  0.963-  10 2.79  10 2.79   2 3.43   1 3.66   1 3.66
  15  0.750  0.994  0.302-  12 2.80   5 3.00   5 3.00   4 3.43   4 3.43
  16  0.250  0.006  0.698-  11 2.80   6 3.00   6 3.00   3 3.43   3 3.43
  17  0.750  0.693  0.241-   5 2.91   5 2.91   9 2.94   7 3.03   2 3.52
  18  0.250  0.307  0.759-   6 2.91   6 2.91  10 2.94   8 3.03   1 3.52
  19  0.750  0.789  0.856-  11 2.94  11 2.94   9 2.99   3 3.54   1 3.73   1 3.73
  20  0.250  0.211  0.144-  12 2.94  12 2.94  10 2.99   4 3.54   2 3.73   2 3.73
  21  0.250  0.906  0.084-  12 3.01  12 3.01   5 3.06  11 3.18   9 3.21   9 3.21
  22  0.750  0.094  0.916-  11 3.01  11 3.01   6 3.06  12 3.18  10 3.21  10 3.21
  23  0.250  0.759  0.459-   5 2.86   7 2.96   7 2.96   3 3.44   3 3.44
  24  0.750  0.241  0.541-   6 2.86   8 2.96   8 2.96   4 3.44   4 3.44
  25  0.250  0.458  0.388-   8 2.86   7 2.99   7 2.99   4 3.74   2 3.75   2 3.75
  26  0.750  0.542  0.612-   7 2.86   8 2.99   8 2.99   3 3.74   1 3.75   1 3.75

  LATTYP: Found a simple monoclinic cell.
 ALAT       =    20.6560840735
 B/A-ratio  =     0.2050218451
 C/A-ratio  =     1.5070814167
 COS(beta)  =    -0.9503182653

  Lattice vectors:

 A1 = (   0.0000000000, -13.9588148200, -15.2258102600)
 A2 = (  -4.2349484700,   0.0000000000,   0.0000000000)
 A3 = (   0.0000000000,  27.1347082800,  15.2580942000)

Analysis of symmetry for initial positions (statically):
 Subroutine PRICEL returns:
 Original cell was already a primitive cell.

 Routine SETGRP: Setting up the symmetry group for a
 simple monoclinic supercell.

 Subroutine GETGRP returns: Found  4 space group operations
 (whereof  2 operations were pure point group operations)
 out of a pool of  4 trial point group operations.

The static configuration has the point symmetry S_2 .
 The point group associated with its full space group is C_2h.

Analysis of symmetry for dynamics (positions and initial velocities):
 Subroutine PRICEL returns:
 Original cell was already a primitive cell.

 Routine SETGRP: Setting up the symmetry group for a
 simple monoclinic supercell.

 Subroutine GETGRP returns: Found  4 space group operations
 (whereof  2 operations were pure point group operations)
 out of a pool of  4 trial point group operations.

The dynamic configuration has the point symmetry S_2 .
 The point group associated with its full space group is C_2h.

 Subroutine INISYM returns: Found  4 space group operations
 (whereof  2 operations are pure point group operations),
 and found     1 'primitive' translations

 KPOINTS: pymatgen with grid density = 807 / numbe

Automatic generation of k-mesh.
Space group operators:
 irot       det(A)        alpha          n_x          n_y          n_z        tau_x        tau_y        tau_z
    1     1.000000     0.000000     1.000000     0.000000     0.000000     0.000000     0.000000     0.000000
    2    -1.000000     0.000000     1.000000     0.000000     0.000000     0.000000     0.000000     0.000000
    3     1.000000   180.000000     1.000000     0.000000     0.000000    -0.500000     0.000000     0.000000
    4    -1.000000   180.000000     1.000000     0.000000     0.000000    -0.500000     0.000000     0.000000

 Subroutine IBZKPT returns following result:

 Found      6 irreducible k-points:

 Following reciprocal coordinates:
            Coordinates               Weight
  0.000000  0.250000  0.250000      2.000000
  0.200000  0.250000  0.250000      4.000000
  0.400000  0.250000  0.250000      4.000000
  0.000000 -0.250000  0.250000      2.000000
  0.200000 -0.250000  0.250000      4.000000
  0.400000 -0.250000  0.250000      4.000000

 Following cartesian coordinates:
            Coordinates               Weight
  0.000000  0.018936  0.015479      2.000000
  0.047226  0.018936  0.015479      4.000000
  0.094452  0.018936  0.015479      4.000000
  0.000000 -0.019017  0.017434      2.000000
  0.047226 -0.019017  0.017434      4.000000
  0.094452 -0.019017  0.017434      4.000000

 SYSTEM =  CIS
 POSCAR =  K4 Bi8 Se14

 Startparameter for this run:
   NWRITE =      2    write-flag & timer
   PREC   = medium    normal or accurate (medium, high low for compatibility)
   ISTART =      0    job   : 0-new  1-cont  2-samecut
   ICHARG =      2    charge: 1-file 2-atom 10-const
   ISPIN  =      1    spin polarized calculation?
   LNONCOLLINEAR =      F non collinear calculations
   LSORBIT =      F    spin-orbit coupling
   INIWAV =      1    electr: 0-lowe 1-rand  2-diag
   LASPH  =      T    aspherical Exc in radial PAW
   METAGGA=      F    non-selfconsistent MetaGGA calc.

 Electronic Relaxation 1
   ENCUT  =  300.0 eV  22.05 Ry    4.70 a.u.   5.98 18.61 21.49*2*pi/ulx,y,z
   ENINI  =  300.0     initial cutoff
   ENAUG  =  446.8 eV  augmentation charge cutoff
   NELM   =     60;   NELMIN=  2; NELMDL= -5     # of ELM steps
   EDIFF  = 0.1E-03   stopping-criterion for ELM
   LREAL  =      T    real-space projection
   NLSPLINE    = F    spline interpolate recip. space projectors
   LCOMPAT=      F    compatible to vasp.4.4
   GGA_COMPAT  = T    GGA compatible to vasp.4.4-vasp.4.6
   LMAXPAW     = -100 max onsite density
   LMAXMIX     =    4 max onsite mixed and CHGCAR
   VOSKOWN=      0    Vosko Wilk Nusair interpolation
   ROPT   =   -0.00200  -0.00200  -0.00200
 Ionic relaxation
   EDIFFG = -.5E-01   stopping-criterion for IOM
   NSW    =     99    number of steps for IOM
   NBLOCK =      1;   KBLOCK =     99    inner block; outer block
   IBRION =      2    ionic relax: 0-MD 1-quasi-New 2-CG
   NFREE  =      1    steps in history (QN), initial steepest desc. (CG)
   ISIF   =      3    stress and relaxation
   IWAVPR =     11    prediction:  0-non 1-charg 2-wave 3-comb
   ISYM   =      2    0-nonsym 1-usesym 2-fastsym
   LCORR  =      T    Harris-Foulkes like correction to forces

   POTIM  = 0.1000    time-step for ionic-motion
   TEIN   =    0.0    initial temperature
   TEBEG  =    0.0;   TEEND  =   0.0 temperature during run
   SMASS  =  -3.00    Nose mass-parameter (am)
   estimated Nose-frequenzy (Omega)   =  0.10E-29 period in steps =****** mass=  -0.410E-27a.u.
   SCALEE = 1.0000    scale energy and forces
   NPACO  =    256;   APACO  = 16.0  distance and # of slots for P.C.
   PSTRESS=    0.0 pullay stress

  Mass of Ions in am
   POMASS =  39.10208.98 78.96
  Ionic Valenz
   ZVAL   =   7.00  5.00  6.00
  Atomic Wigner-Seitz radii
  virtual crystal weights
   VCA    =   1.00  1.00  1.00
   NELECT =     152.0000    total number of electrons
   NUPDOWN=      -1.0000    fix difference up-down

 DOS related values:
   EMIN   =  10.00;   EMAX   =-10.00  energy-range for DOS
   EFERMI =   0.00
   ISMEAR =     0;   SIGMA  =   0.05  broadening in eV -4-tet -1-fermi 0-gaus

 Electronic relaxation 2 (details)
   IALGO  =     38    algorithm
   LDIAG  =      T    sub-space diagonalisation (order eigenvalues)
[...]
 d Force =-0.2097573E+01[-0.212E+01,-0.207E+01]  d Ewald  =-0.2649105E+01 0.552E+00

[...]

 d Force = 0.3410959E-04[ 0.211E-04, 0.471E-04]  d Energy = 0.1269415E-04 0.214E-04
 d Force = 0.8333455E-01[ 0.833E-01, 0.834E-01]  d Ewald  =-0.3016881E-02 0.864E-01

[...]

 d Force = 0.1558049E-03[-0.950E-03, 0.126E-02]  d Energy = 0.2517663E-03-0.960E-04
 d Force =-0.1814819E+00[-0.187E+00,-0.176E+00]  d Ewald  =-0.7132266E+00 0.532E+00

[...]

 d Force = 0.2119560E-03[-0.406E-03, 0.830E-03]  d Energy = 0.3029327E-03-0.910E-04
 d Force = 0.4310887E+00[ 0.428E+00, 0.435E+00]  d Ewald  = 0.3038397E+00 0.127E+00

[...]

 eigenvalues of (default mixing * dielectric matrix)
  average eigenvalue GAMMA=   0.8328
  0.8328

[...]

 d Force = 0.8672440E-06[-0.131E-05, 0.305E-05]  d Energy =-0.1209871E-04 0.130E-04
 d Force = 0.1419756E-01[ 0.142E-01, 0.142E-01]  d Ewald  = 0.1232751E-01 0.187E-02

[...]

 d Force = 0.1480036E-06[-0.689E-06, 0.985E-06]  d Energy = 0.2048167E-05-0.190E-05
 d Force =-0.1063095E-01[-0.106E-01,-0.106E-01]  d Ewald  =-0.9230635E-02-0.140E-02

[...]

 d Force = 0.1780424E-03[-0.146E-04, 0.371E-03]  d Energy = 0.2254624E-03-0.474E-04
 d Force = 0.9236818E-01[ 0.917E-01, 0.930E-01]  d Ewald  = 0.5319330E+00-0.440E+00

 Conjugate gradient step on ions:
 trial-energy change:   -0.000225  1 .order   -0.000196   -0.000404    0.000012
  (g-gl).g = 0.135E-03      g.g   = 0.181E-03  gl.gl    = 0.374E-03
 g(Force)  = 0.156E-03   g(Stress)= 0.252E-04 ortho     =-0.209E-04
 gamma     =   0.36063
 trial     =   2.32354
 opt step  =   2.25539  (harmonic =   2.25539) maximal distance =0.00109563
 next E    =  -100.975283   (d E  =  -0.00020)

[...]

 d Force =-0.3869834E-06[-0.120E-05, 0.427E-06]  d Energy =-0.4980373E-05 0.459E-05
 d Force =-0.2690837E-02[-0.269E-02,-0.269E-02]  d Ewald  =-0.1558394E-01 0.129E-01

[...]

 d Force = 0.1675258E-04[ 0.540E-05, 0.281E-04]  d Energy = 0.2626749E-04-0.951E-05
 d Force = 0.5748356E-01[ 0.574E-01, 0.575E-01]  d Ewald  = 0.8402305E-01-0.265E-01

[...]

 eigenvalue-minimisations  :  1176
 total energy-change (2. order) :-0.1586739E-03  (-0.5341260E-03)
 number of electron     151.9999406 magnetization
 augmentation part      -13.5999696 magnetization

[...]

 d Force = 0.1011798E-03[-0.316E-04, 0.234E-03]  d Energy = 0.1571290E-03-0.559E-04
 d Force = 0.1933853E+00[ 0.193E+00, 0.194E+00]  d Ewald  =-0.1642569E+00 0.358E+00

 Conjugate gradient step on ions:
 trial-energy change:   -0.000157  1 .order   -0.000144   -0.000295    0.000007
  (g-gl).g = 0.113E-03      g.g   = 0.217E-03  gl.gl    = 0.247E-03
 g(Force)  = 0.174E-03   g(Stress)= 0.423E-04 ortho     = 0.215E-04
 gamma     =   0.45763
 trial     =   1.30433
 opt step  =   1.27206  (harmonic =   1.27206) maximal distance =0.00058968
 next E    =  -100.975663   (d E  =  -0.00014)

[...]

 Broyden mixing:
  rms(total) = 0.10045E-02    rms(broyden)= 0.10045E-02
  rms(prec ) = 0.11279E-02
  weight for this iteration     100.00

[...]

--------------------------------------- Iteration     39(   2)  ---------------------------------------

 eigenvalue-minimisations  :   630
 total energy-change (2. order) : 0.2216684E-05  (-0.6100049E-06)
 number of electron     151.9999406 magnetization
 augmentation part      -13.6002533 magnetization

 Free energy of the ion-electron system (eV)
  alpha Z        PSCENC =       301.02882918
  Ewald energy   TEWEN  =     -5575.85225910
  -Hartree energ DENC   =     -1061.04238164
  -exchange      EXHF   =         0.00000000
  -V(xc)+E(xc)   XCENC  =      -840.94233938
  PAW double counting   =      7784.06991921    -6641.97226649
  entropy T*S    EENTRO =        -0.00000000
  eigenvalues    EBANDS =      -674.43539317
  atomic energy  EATOM  =      6608.17022516
  Solvation  Ediel_sol  =         0.00000000
  free energy    TOTEN  =      -100.97566623 eV

  energy without entropy =     -100.97566623  energy(sigma->0) =     -100.97566623

 average (electrostatic) potential at core
  the test charge radii are     1.3383  1.4024  1.0808
  (the norm of the test charge is              1.0000)
       1 -11.9872       2 -11.9872       3 -11.9019       4 -11.9019       5 -65.1303
       6 -65.1303       7 -65.1404       8 -65.1404       9 -65.0508      10 -65.0508
      11 -65.2080      12 -65.2080      13 -55.2626      14 -55.2626      15 -55.3250
      16 -55.3250      17 -55.4514      18 -55.4514      19 -55.4020      20 -55.4020
      21 -55.5032      22 -55.5032      23 -55.3115      24 -55.3115      25 -55.3147
      26 -55.3147

 E-fermi :   2.3759     XC(G=0):  -8.4833     alpha+bet : -7.7778

[...]

 k-point     6 :       0.4000   -0.2500    0.2500
  band No.  band energies     occupation
      1     -11.5094      2.00000
      2     -11.5075      2.00000
      3     -11.4670      2.00000
      4     -11.4640      2.00000
      5     -11.4217      2.00000
      6     -11.4180      2.00000
      7     -11.3896      2.00000
      8     -11.3837      2.00000
      9     -11.3597      2.00000
     10     -11.3593      2.00000
     11     -11.3252      2.00000
     12     -11.3222      2.00000
     13     -10.5871      2.00000
     14     -10.4942      2.00000
     15     -10.1568      2.00000
     16     -10.1390      2.00000
     17     -10.1258      2.00000
     18      -9.9440      2.00000
     19      -9.8800      2.00000
     20      -9.8028      2.00000
     21      -9.7434      2.00000
     22      -9.7332      2.00000
     23      -9.7205      2.00000
     24      -9.6748      2.00000
     25      -9.6346      2.00000
     26      -9.5045      2.00000
     27      -8.3197      2.00000
     28      -8.2144      2.00000
     29      -8.1074      2.00000
     30      -7.9942      2.00000
     31      -7.8897      2.00000
     32      -7.8650      2.00000
     33      -7.5587      2.00000
     34      -7.5365      2.00000
     35      -2.3874      2.00000
     36      -2.2225      2.00000
     37      -2.0672      2.00000
     38      -1.9827      2.00000
     39      -1.7490      2.00000
     40      -1.6887      2.00000
     41      -1.5514      2.00000
     42      -1.4286      2.00000
     43      -1.3587      2.00000
     44      -1.3166      2.00000
     45      -1.2181      2.00000
     46      -0.9347      2.00000
     47      -0.8874      2.00000
     48      -0.8697      2.00000
     49      -0.7911      2.00000
     50      -0.7485      2.00000
     51      -0.7051      2.00000
     52      -0.5665      2.00000
     53      -0.5182      2.00000
     54      -0.3528      2.00000
     55      -0.2024      2.00000
     56      -0.1253      2.00000
     57      -0.0076      2.00000
     58       0.1277      2.00000
     59       0.5983      2.00000
     60       0.6700      2.00000
[...]
     84       4.6775      0.00000
     85       4.8566      0.00000
     86       4.9045      0.00000
     87       4.9401      0.00000
     88       5.0452      0.00000
     89       5.2930      0.00000
     90       5.3943      0.00000
     91       5.4667      0.00000
     92       5.5543      0.00000
     93       5.6765      0.00000
     94       5.7355      0.00000
     95       5.8992      0.00000
     96       5.9033      0.00000
     97       6.0679      0.00000
     98       6.3147      0.00000

 soft charge-density along one line, spin component           1
         0         1         2         3         4         5         6         7         8         9
 total charge-density along one line

------------------------ aborting loop because EDIFF is reached ----------------------------------------

[...]

  FORCE on cell =-STRESS in cart. coord.  units (eV):
  Direction    XX          YY          ZZ          XY          YZ          ZX
  Alpha Z   301.02883   301.02883   301.02883
  Ewald   -1753.03726 -1882.29470 -1940.53947    -0.00000    31.07585    -0.00000
  Hartree   431.91122   346.76047   282.39792     0.00000    28.60165    -0.00000
  E(xc)    -593.90523  -593.77933  -593.93747    -0.00000     0.24573    -0.00000
  Local    -653.40358  -441.15178  -317.57004    -0.00000   -62.69966     0.00000
  n-local  1078.91438  1078.49436  1080.61109    -0.02321    -0.44625     0.08998
  augment  -248.86484  -248.03864  -247.60022     0.00000     0.50036     0.00000
  Kinetic  1437.24938  1438.89569  1435.60318     0.03215     2.86572     0.12643
  Fock        0.00000     0.00000     0.00000     0.00000     0.00000     0.00000
  Total      -0.10711    -0.08511    -0.00618     0.00000     0.14339     0.00000
  in kB      -0.20416    -0.16223    -0.01179     0.00000     0.27331     0.00000

 VOLUME and BASIS-vectors are now :
  energy-cutoff  :      300.00
  volume of cell :      840.57
      direct lattice vectors                 reciprocal lattice vectors
     4.247193284  0.000000000  0.000000000     0.235449609  0.000000000  0.000000000
     0.000000000 13.111078922 -0.110110408     0.000000000  0.076245240 -0.003111793
     0.000000000  0.615859159 15.089798048     0.000000000  0.000556362  0.066247232

  length of vectors
     4.247193284 13.111541283 15.102360333     0.235449609  0.076308714  0.066249569

 FORCES acting on ions
    electron-ion (+dipol)            ewald-force                    non-local-force                 convergence-correction
   0.354E-14 -.247E+02 0.483E+02   -.385E-14 0.243E+02 -.472E+02   -.217E-18 0.431E+00 -.105E+01   0.333E-13 -.178E-03 -.134E-02
   0.558E-13 0.247E+02 -.483E+02   0.123E-13 -.243E+02 0.472E+02   0.217E-18 -.431E+00 0.105E+01   -.185E-13 0.178E-03 0.134E-02
   0.336E-13 -.117E+02 0.252E+02   -.942E-14 0.122E+02 -.254E+02   0.000E+00 -.502E+00 0.187E+00   -.126E-13 0.108E-02 -.625E-03
   0.147E-13 0.117E+02 -.252E+02   0.758E-14 -.122E+02 0.254E+02   0.000E+00 0.502E+00 -.187E+00   0.221E-13 -.108E-02 0.625E-03
   0.630E-14 -.164E+02 -.338E+02   0.237E-13 0.177E+02 0.329E+02   0.000E+00 -.125E+01 0.903E+00   -.766E-14 0.542E-03 -.420E-04
   0.515E-14 0.164E+02 0.338E+02   -.167E-13 -.177E+02 -.329E+02   0.000E+00 0.125E+01 -.903E+00   0.531E-14 -.542E-03 0.420E-04
   0.169E-13 -.181E+01 -.510E+01   0.658E-15 0.184E+01 0.386E+01   0.000E+00 -.249E-01 0.124E+01   -.154E-14 -.361E-03 -.254E-03
   0.141E-13 0.181E+01 0.510E+01   -.132E-13 -.184E+01 -.386E+01   0.000E+00 0.249E-01 -.124E+01   0.836E-17 0.361E-03 0.254E-03
   0.112E-13 -.498E+01 0.439E+01   -.754E-14 0.837E+01 -.356E+01   0.000E+00 -.337E+01 -.832E+00   0.322E-14 0.384E-03 0.675E-03
   0.761E-14 0.498E+01 -.439E+01   -.820E-16 -.837E+01 0.356E+01   0.000E+00 0.337E+01 0.832E+00   -.640E-14 -.384E-03 -.675E-03
   0.156E-13 0.136E+02 0.141E+02   0.112E-13 -.135E+02 -.118E+02   0.000E+00 -.138E+00 -.235E+01   -.341E-15 0.495E-03 -.396E-03
   0.530E-14 -.136E+02 -.141E+02   -.954E-14 0.135E+02 0.118E+02   0.000E+00 0.138E+00 0.235E+01   -.357E-14 -.495E-03 0.396E-03
   0.327E-13 0.105E+02 -.838E+01   0.587E-14 -.128E+02 0.785E+01   0.000E+00 0.237E+01 0.525E+00   -.355E-14 -.116E-02 0.609E-03
   0.455E-13 -.105E+02 0.838E+01   -.915E-15 0.128E+02 -.785E+01   0.000E+00 -.237E+01 -.525E+00   0.859E-14 0.116E-02 -.609E-03
   0.504E-13 -.138E+02 -.765E+02   -.221E-13 0.146E+02 0.782E+02   -.434E-18 -.773E+00 -.168E+01   0.120E-13 0.588E-03 0.661E-03
   0.206E-13 0.138E+02 0.765E+02   0.159E-13 -.146E+02 -.782E+02   0.434E-18 0.773E+00 0.168E+01   -.205E-14 -.588E-03 -.661E-03
   0.548E-13 0.199E+02 -.178E+02   -.159E-13 -.213E+02 0.173E+02   0.434E-18 0.137E+01 0.522E+00   0.171E-13 -.601E-03 -.297E-03
   0.274E-13 -.199E+02 0.178E+02   0.199E-13 0.213E+02 -.173E+02   -.434E-18 -.137E+01 -.522E+00   -.614E-14 0.601E-03 0.297E-03
   0.672E-13 0.247E+02 0.447E+02   -.209E-14 -.259E+02 -.457E+02   -.217E-18 0.122E+01 0.938E+00   -.154E-14 0.923E-03 -.108E-02
   0.195E-13 -.247E+02 -.447E+02   0.525E-14 0.259E+02 0.457E+02   0.217E-18 -.122E+01 -.938E+00   0.996E-14 -.923E-03 0.108E-02
   0.247E-13 0.875E+00 -.119E+01   0.791E-14 -.123E+01 0.732E+00   0.542E-19 0.386E+00 0.451E+00   0.161E-14 -.623E-03 -.336E-03
   0.483E-13 -.875E+00 0.119E+01   -.983E-14 0.123E+01 -.732E+00   -.542E-19 -.386E+00 -.451E+00   0.905E-14 0.623E-03 0.336E-03
   0.249E-13 -.496E+02 -.310E+02   -.847E-14 0.506E+02 0.325E+02   0.434E-18 -.956E+00 -.155E+01   0.531E-14 -.349E-03 0.158E-02
   0.500E-13 0.496E+02 0.310E+02   0.156E-13 -.506E+02 -.325E+02   -.434E-18 0.956E+00 0.155E+01   0.313E-14 0.349E-03 -.158E-02
   0.255E-13 0.298E+02 0.257E+02   0.292E-15 -.306E+02 -.272E+02   -.108E-18 0.830E+00 0.148E+01   0.754E-14 0.375E-03 -.233E-02
   0.568E-13 -.298E+02 -.257E+02   0.820E-14 0.306E+02 0.272E+02   0.108E-18 -.830E+00 -.148E+01   0.210E-14 -.375E-03 0.233E-02
   0.738E-12 0.121E-11 -.219E-10   0.146E-13 0.355E-14 -.142E-13   0.000E+00 -.888E-15 0.000E+00   0.764E-13 0.300E-12 -.324E-12

 POSITION                                       TOTAL-FORCE (eV/Angst)
      1.06180      7.85618     12.23901        -0.000000     -0.001971     -0.010307
      3.18539      5.87076      2.74067        -0.000000      0.001971      0.010307
      3.18539     11.20677      9.32383         0.000000     -0.012178      0.003572
      1.06180      2.52016      5.65586        -0.000000      0.012178     -0.003572
      1.06180     11.14390      4.15919        -0.000000     -0.000901     -0.000280
      3.18539      2.58304     10.82050        -0.000000      0.000901      0.000280
      3.18539      8.23187      6.43551        -0.000000      0.001376     -0.007745
      1.06180      5.49507      8.54418        -0.000000     -0.001376      0.007745
      3.18539      9.59056      0.61404        -0.000000      0.006853     -0.003252
      1.06180      4.13638     14.36564         0.000000     -0.006853      0.003252
      1.06180     12.86079     13.07495        -0.000000      0.000563     -0.014887
      3.18539      0.86615      1.90474         0.000000     -0.000563      0.014887
      1.06180      7.76264      0.43369        -0.000000      0.016536      0.000290
      3.18539      5.96430     14.54600        -0.000000     -0.016536     -0.000290
      3.18539     13.28326      4.52012        -0.000000     -0.000156      0.013882
      1.06180      0.44368     10.45957        -0.000000      0.000156     -0.013882
      3.18539      9.21345      3.57221        -0.000000     -0.020591      0.004111
      1.06180      4.51349     11.40748        -0.000000      0.020591     -0.004111
      3.18539     10.81062     12.79265        -0.000000      0.046694      0.014310
      1.06180      2.91632      2.18704        -0.000000     -0.046694     -0.014310
      1.06180     11.92345      1.19031        -0.000000      0.028206     -0.004724
      3.18539      1.80349     13.78938        -0.000000     -0.028206      0.004724
      1.06180     10.27317      6.89920         0.000000      0.017379     -0.009313
      3.18539      3.45377      8.08049        -0.000000     -0.017379      0.009313
      1.06180      6.19961      5.75372        -0.000000      0.003405     -0.025802
      3.18539      7.52733      9.22597        -0.000000     -0.003405      0.025802
    total drift:                                0.000000      0.000000     -0.000000

  FREE ENERGIE OF THE ION-ELECTRON SYSTEM (eV)
  free  energy   TOTEN  =      -100.97566623 eV

  energy  without entropy=     -100.97566623  energy(sigma->0) =     -100.97566623

 d Force = 0.3297405E-06[-0.123E-06, 0.782E-06]  d Energy =-0.1013313E-04 0.105E-04
 d Force =-0.4779396E-02[-0.478E-02,-0.478E-02]  d Ewald  = 0.4067926E-02-0.885E-02

 reached required accuracy - stopping structural energy minimisation

 total charge

# of ion       s       p       d       tot
    1        0.059   6.039   0.054   6.153
    2        0.059   6.039   0.054   6.153
    3        0.072   6.063   0.066   6.201
    4        0.072   6.063   0.066   6.201
    5        1.834   1.453   0.151   3.438
    6        1.834   1.453   0.151   3.438
    7        1.833   1.449   0.151   3.432
    8        1.833   1.449   0.151   3.432
    9        1.813   1.531   0.142   3.486
   10        1.813   1.531   0.142   3.486
   11        1.825   1.472   0.144   3.441
   12        1.825   1.472   0.144   3.441
   13        1.478   2.297   0.018   3.792
   14        1.478   2.297   0.018   3.792
   15        1.464   2.334   0.013   3.811
   16        1.464   2.334   0.013   3.811
   17        1.469   2.325   0.017   3.811
   18        1.469   2.325   0.017   3.811
   19        1.464   2.321   0.012   3.797
   20        1.464   2.321   0.012   3.797
   21        1.471   2.311   0.018   3.800
   22        1.471   2.311   0.018   3.800
   23        1.463   2.333   0.013   3.809
   24        1.463   2.333   0.013   3.809
   25        1.463   2.317   0.013   3.793
   26        1.463   2.317   0.013   3.793
tot         35.415  68.489   1.624 105.527