 vasp.6.1.0 28Jan20 (build Jul 20 2020 17:48:44) complex

 executed on             LinuxIFC date 2024.09.22  02:37:29

 INCAR:
 POTCAR:    PAW_PBE Li 17Jan2003
 POTCAR:    PAW_PBE Sb 06Sep2000
 POTCAR:    PAW_PBE S 06Sep2000
|           W    W    AA    RRRRR   N    N  II  N    N   GGGG   !!!           |
|           W    W   A  A   R    R  NN   N  II  NN   N  G    G  !!!           |
|           W    W  A    A  R    R  N N  N  II  N N  N  G       !!!           |
|           W WW W  AAAAAA  RRRRR   N  N N  II  N  N N  G  GGG   !            |
|           WW  WW  A    A  R   R   N   NN  II  N   NN  G    G                |
|           W    W  A    A  R    R  N    N  II  N    N   GGGG   !!!           |
|     For optimal performance we recommend to set                             |
|       NCORE = 4 - approx SQRT(number of cores).                             |
|     This setting can greatly improve the performance of VASP for DFT.       |
|     The default, NCORE=1 might be grossly inefficient on modern             |
|     multi-core architectures or massively parallel machines. Do your        |
|     own testing!!!!                                                         |
|     Unfortunately you need to use the default for GW and RPA                |
|     calculations (for HF NCORE is supported but not extensively tested      |
|     yet).                                                                   |

 POTCAR:    PAW_PBE Li 17Jan2003
   VRHFIN =Li: s1p0

   TITEL  = PAW_PBE Li 17Jan2003
   POMASS =    7.010; ZVAL   =    1.000    mass and valenz
   ENMAX  =  140.000; ENMIN  =  100.000 eV

 POTCAR:    PAW_PBE Sb 06Sep2000
   VRHFIN =Sb: s2p3

   TITEL  = PAW_PBE Sb 06Sep2000
   POMASS =  121.750; ZVAL   =    5.000    mass and valenz
   ENMAX  =  172.069; ENMIN  =  129.052 eV

 POTCAR:    PAW_PBE S 06Sep2000
   VRHFIN =S : s2p4

   TITEL  = PAW_PBE S 06Sep2000
   POMASS =   32.066; ZVAL   =    6.000    mass and valenz
   ENMAX  =  258.689; ENMIN  =  194.016 eV

 Optimization of the real space projectors (new method)

 maximal supplied QI-value         = 18.33
 optimisation between [QCUT,QGAM] = [  8.80, 17.60] = [ 21.68, 86.71] Ry
 Optimized for a Real-space Cutoff    1.15 Angstroem

   l    n(q)    QCUT    max X(q) W(low)/X(q) W(high)/X(q)  e(spline)
   0      6     8.799    33.825    0.11E-02    0.11E-02    0.82E-07
   0      6     8.799     8.944    0.75E-03    0.85E-03    0.59E-07
   1      5     8.799     4.214    0.92E-03    0.27E-03    0.41E-07
 Optimization of the real space projectors (new method)

[...]

   l    n(q)    QCUT    max X(q) W(low)/X(q) W(high)/X(q)  e(spline)
   0      7     8.776    19.000    0.12E-02    0.42E-03    0.95E-07
   0      7     8.776     9.057    0.14E-02    0.54E-03    0.11E-06
   1      6     8.776   125.345    0.45E-03    0.22E-02    0.77E-07
   1      6     8.776    79.963    0.45E-03    0.21E-02    0.76E-07
   2      6     8.776     6.963    0.11E-02    0.51E-03    0.39E-07
 Optimization of the real space projectors (new method)

 maximal supplied QI-value         = 19.84
 optimisation between [QCUT,QGAM] = [  8.73, 17.66] = [ 21.34, 87.33] Ry
 Optimized for a Real-space Cutoff    1.22 Angstroem

   l    n(q)    QCUT    max X(q) W(low)/X(q) W(high)/X(q)  e(spline)
   0      6     8.731   187.594    0.15E-02    0.56E-03    0.90E-07
   0      6     8.731   164.243    0.15E-02    0.56E-03    0.89E-07
   1      6     8.731    67.533    0.37E-03    0.20E-02    0.11E-06
   1      6     8.731    50.729    0.36E-03    0.19E-02    0.10E-06
  PAW_PBE Li 17Jan2003                  :
  PAW_PBE Sb 06Sep2000                  :
  PAW_PBE S 06Sep2000                   :

 POSCAR: Li4 Sb20 S32
  positions in direct lattice
  velocities in cartesian coordinates
 exchange correlation table for  LEXCH =        8
   RHO(1)=    0.500       N(1)  =     2000
   RHO(2)=  100.500       N(2)  =     4000

 ion  position               nearest neighbor table
   1  0.505  0.931  0.006-  34 2.44  50 2.45  54 2.46  14 3.48
   2  0.495  0.931  0.506-  33 2.44  49 2.45  53 2.46  13 3.48
   3  0.050  0.098  0.787-  36 2.58  55 2.66  44 2.82  45 2.95
   4  0.950  0.098  0.287-  35 2.58  56 2.66  43 2.82  46 2.95
   5  0.275  0.220  0.542-  51 2.52  47 2.59  53 2.67  45 2.83  27 2.96   9 3.74
   6  0.725  0.220  0.042-  52 2.52  48 2.59  54 2.67  46 2.83  28 2.96  10 3.74
   7  0.454  0.585  0.437-  34 2.48  49 2.53  47 2.76  32 2.77  14 3.76
   8  0.546  0.585  0.937-  33 2.48  50 2.53  48 2.76  31 2.77  13 3.76
   9  0.214  0.377  0.740-  45 2.44  55 2.55  51 2.57  25 3.09  37 3.18   5 3.74  11 3.75
  10  0.786  0.377  0.240-  46 2.44  56 2.55  52 2.57  26 3.09  38 3.18   6 3.74  12 3.75
  11  0.268  0.805  0.984-  27 2.47  55 2.56  29 2.66  51 2.90  31 3.13   9 3.75
  12  0.732  0.805  0.484-  28 2.47  56 2.56  30 2.66  52 2.90  32 3.13  10 3.75
  13  0.367  0.646  0.781-  31 2.47  53 2.50  33 2.62  27 2.97   2 3.48   8 3.76
  14  0.633  0.646  0.281-  32 2.47  54 2.50  34 2.62  28 2.97   1 3.48   7 3.76
  15  0.125  0.016  0.463-  43 2.48  37 2.51  35 2.54  29 3.13  25 3.19
  16  0.875  0.016  0.963-  44 2.48  38 2.51  36 2.54  30 3.13  26 3.19
  17  0.048  0.577  0.202-  39 2.46  35 2.51  38 2.54  29 3.16
  18  0.952  0.577  0.702-  40 2.46  36 2.51  37 2.54  30 3.16
  19  0.144  0.421  0.021-  29 2.51  39 2.53  43 2.72  27 2.84  41 3.26
  20  0.856  0.421  0.521-  30 2.51  40 2.53  44 2.72  28 2.84  42 3.26
  21  0.219  0.810  0.285-  25 2.50  41 2.60  47 2.66  43 2.96  45 2.99  23 3.70
  22  0.781  0.810  0.785-  26 2.50  42 2.60  48 2.66  44 2.96  46 2.99  24 3.70
  23  0.345  0.159  0.260-  41 2.49  49 2.55  25 2.61  31 3.04  21 3.70
  24  0.655  0.159  0.760-  42 2.49  50 2.55  26 2.61  32 3.04  22 3.70
  25  0.269  0.824  0.463-  21 2.50  23 2.61   9 3.09  15 3.19
  26  0.731  0.824  0.963-  22 2.50  24 2.61  10 3.09  16 3.19
  27  0.229  0.782  0.807-  11 2.47  19 2.84   5 2.96  13 2.97
  28  0.771  0.782  0.307-  12 2.47  20 2.84   6 2.96  14 2.97
  29  0.200  0.439  0.193-  19 2.51  11 2.66  15 3.13  17 3.16
  30  0.800  0.439  0.693-  20 2.51  12 2.66  16 3.13  18 3.16
  31  0.405  0.593  0.993-  13 2.47   8 2.77  23 3.04  11 3.13
  32  0.595  0.593  0.493-  14 2.47   7 2.77  24 3.04  12 3.13
  33  0.498  0.577  0.757-   2 2.44   8 2.48  13 2.62
  34  0.502  0.577  0.257-   1 2.44   7 2.48  14 2.62
  35  0.009  0.201  0.416-  17 2.51  15 2.54   4 2.58
  36  0.991  0.201  0.916-  18 2.51  16 2.54   3 2.58
  37  0.084  0.650  0.691-  15 2.51  18 2.54   9 3.18
  38  0.916  0.650  0.191-  16 2.51  17 2.54  10 3.18
  39  0.035  0.618  0.988-  17 2.46  19 2.53
  40  0.965  0.618  0.488-  18 2.46  20 2.53
  41  0.287  0.163  0.081-  23 2.49  21 2.60  19 3.26
  42  0.713  0.163  0.581-  24 2.49  22 2.60  20 3.26
  43  0.093  0.031  0.265-  15 2.48  19 2.72   4 2.82  21 2.96
  44  0.907  0.031  0.765-  16 2.48  20 2.72   3 2.82  22 2.96
  45  0.155  0.400  0.555-   9 2.44   5 2.83   3 2.95  21 2.99
  46  0.845  0.400  0.055-  10 2.44   6 2.83   4 2.95  22 2.99
  47  0.330  0.588  0.322-   5 2.59  21 2.66   7 2.76
  48  0.670  0.588  0.822-   6 2.59  22 2.66   8 2.76
  49  0.461  0.976  0.297-   2 2.45   7 2.53  23 2.55
  50  0.539  0.976  0.797-   1 2.45   8 2.53  24 2.55
  51  0.325  0.217  0.729-   5 2.52   9 2.57  11 2.90
  52  0.675  0.217  0.229-   6 2.52  10 2.57  12 2.90
  53  0.395  0.032  0.572-   2 2.46  13 2.50   5 2.67
  54  0.605  0.032  0.072-   1 2.46  14 2.50   6 2.67
  55  0.160  0.012  0.953-   9 2.55  11 2.56   3 2.66
  56  0.840  0.012  0.453-  10 2.55  12 2.56   4 2.66

  LATTYP: Found a simple monoclinic cell.
 ALAT       =    12.5269093250
 B/A-ratio  =     1.5106741063
 C/A-ratio  =     1.5623621198
 COS(beta)  =    -0.9471726381

  Lattice vectors:

 A1 = (   0.0000000000,  -8.6533810103,  -9.0577289828)
 A2 = ( -18.9240775490,   0.0000000000,   0.0000000000)
 A3 = (   0.0000000000,  17.3442167537,   9.0677694583)

Analysis of symmetry for initial positions (statically):
 Subroutine PRICEL returns:
 Original cell was already a primitive cell.

 Routine SETGRP: Setting up the symmetry group for a
 simple monoclinic supercell.

 Subroutine GETGRP returns: Found  2 space group operations
 (whereof  1 operations were pure point group operations)
 out of a pool of  4 trial point group operations.

The static configuration has the point symmetry C_1 .
 The point group associated with its full space group is C_1h.

Analysis of symmetry for dynamics (positions and initial velocities):
 Subroutine PRICEL returns:
 Original cell was already a primitive cell.

 Routine SETGRP: Setting up the symmetry group for a
 simple monoclinic supercell.

 Subroutine GETGRP returns: Found  2 space group operations
 (whereof  1 operations were pure point group operations)
 out of a pool of  4 trial point group operations.

The dynamic configuration has the point symmetry C_1 .
 The point group associated with its full space group is C_1h.

 Subroutine INISYM returns: Found  2 space group operations
 (whereof  1 operations are pure point group operations),
 and found     1 'primitive' translations

                                     Primitive cell

  volume of cell :    1488.0447

  direct lattice vectors                    reciprocal lattice vectors
    18.924077549  0.000000000  0.000000000     0.052842734  0.000000000  0.000000000
     0.000000000  8.690835743  0.010040476     0.000000000  0.115190871 -0.110048611
     0.000000000  8.653381010  9.057728983     0.000000000 -0.000127689  0.110524939

  length of vectors
    18.924077549  8.690841543 12.526909325     0.052842734  0.159309867  0.110525012

  position of ions in fractional coordinates (direct lattice)
     0.504817224  0.931347337  0.006123677
     0.495182776  0.931347337  0.506123677
     0.050194148  0.098128338  0.787243239
     0.949805852  0.098128338  0.287243239
     0.274804512  0.219553083  0.541592463
     0.725195488  0.219553083  0.041592463
     0.454468416  0.584764474  0.437436833
     0.545531584  0.584764474  0.937436833
     0.214215426  0.376668255  0.739681284
     0.785784574  0.376668255  0.239681284
     0.268002446  0.804979081  0.983983417
     0.731997554  0.804979081  0.483983417
     0.366759207  0.646150278  0.780859962
     0.633240793  0.646150278  0.280859962
     0.125019975  0.015788189  0.463342363
     0.874980025  0.015788189  0.963342363
     0.047514339  0.576909544  0.202477508
     0.952485661  0.576909544  0.702477508
     0.143655824  0.420507757  0.021170293
     0.856344176  0.420507757  0.521170293
     0.219214256  0.810225621  0.285209157
     0.780785744  0.810225621  0.785209157
     0.345176947  0.159393597  0.260395736
     0.654823053  0.159393597  0.760395736
     0.268607975  0.823883699  0.463204085
     0.731392025  0.823883699  0.963204085
     0.229264301  0.782453336  0.807085641
     0.770735699  0.782453336  0.307085641
     0.200177874  0.439094084  0.193073771
     0.799822126  0.439094084  0.693073771
     0.404611796  0.593071799  0.992983451
     0.595388204  0.593071799  0.492983451
     0.497865474  0.577488328  0.756656697
     0.502134526  0.577488328  0.256656697
     0.008748747  0.201105381  0.416477977
[...]
   55        1.350   2.350   0.000   3.700
   56        1.350   2.350   0.000   3.700
tot         69.595  96.130   1.465 167.190

  FORCE on cell =-STRESS in cart. coord.  units (eV):
  Direction    XX          YY          ZZ          XY          YZ          ZX
  Alpha Z   114.80078   114.80078   114.80078
  Ewald   -3577.21366 -3545.94635 -3135.34733    -0.00000  -206.50836    -0.00000
  Hartree   575.34605   732.36032   882.19820    -0.00003  -144.82929     0.00001
  E(xc)    -821.37594  -824.84294  -822.88743    -0.00000    -2.34255     0.00000
  Local   -2352.92894 -2573.98761 -3081.82219     0.00003   342.84437    -0.00001
  n-local  3770.70796  3799.64776  3781.57968     0.00001    19.63796    -0.00001
  augment  -868.97303  -877.35573  -868.30269    -0.00000    -3.68929    -0.00000
  Kinetic  3220.47479  3234.25186  3190.18421    -0.00000    -7.15828     0.00001
  Fock      -82.90843   -81.16196   -83.35512     0.00000     0.60312     0.00000
  Total     -22.07043   -22.23387   -22.95189     0.00000    -1.44231     0.00000
  in kB     -23.76323   -23.93920   -24.71230     0.00000    -1.55294     0.00000

 VOLUME and BASIS-vectors are now :
  energy-cutoff  :      300.00
  volume of cell :     1488.04
      direct lattice vectors                 reciprocal lattice vectors
    18.924077549  0.000000000  0.000000000     0.052842734  0.000000000  0.000000000
     0.000000000  8.690835743  0.010040476     0.000000000  0.115190871 -0.110048611
     0.000000000  8.653381010  9.057728983     0.000000000 -0.000127689  0.110524939

  length of vectors
    18.924077549  8.690841543 12.526909325     0.052842734  0.159309867  0.110525012

 FORCES acting on ions
    electron-ion (+dipol)            ewald-force                    non-local-force                 convergence-correction
   0.140E+02 -.659E+01 0.651E+01   -.129E+02 0.596E+01 -.613E+01   -.104E+01 0.629E+00 -.359E+00   0.580E-03 -.660E-03 0.954E-04
   -.140E+02 -.659E+01 0.651E+01   0.129E+02 0.596E+01 -.613E+01   0.104E+01 0.629E+00 -.359E+00   -.577E-03 -.658E-03 0.912E-04
   -.833E+00 0.777E+01 0.739E+01   0.808E+00 -.721E+01 -.680E+01   0.570E-01 -.575E+00 -.567E+00   0.113E-03 0.748E-05 0.505E-04
   0.833E+00 0.777E+01 0.739E+01   -.808E+00 -.721E+01 -.680E+01   -.570E-01 -.575E+00 -.567E+00   -.115E-03 0.596E-05 0.483E-04
   -.677E+00 0.232E+02 0.156E+02   -.681E+01 -.314E+02 -.190E+02   0.750E+01 0.815E+01 0.330E+01   0.542E-02 0.330E-03 -.155E-03
   0.677E+00 0.232E+02 0.156E+02   0.681E+01 -.314E+02 -.190E+02   -.750E+01 0.815E+01 0.330E+01   -.542E-02 0.328E-03 -.133E-03
   -.303E+01 0.319E+00 -.414E+02   -.157E+00 -.185E+01 0.535E+02   0.324E+01 0.145E+01 -.121E+02   0.252E-02 0.590E-04 0.236E-02
   0.303E+01 0.319E+00 -.414E+02   0.157E+00 -.185E+01 0.535E+02   -.324E+01 0.145E+01 -.121E+02   -.252E-02 0.720E-04 0.239E-02
   -.182E+02 -.381E+02 -.172E+02   0.196E+02 0.497E+02 0.187E+02   -.157E+01 -.117E+02 -.151E+01   0.704E-02 0.751E-03 0.171E-02
   0.182E+02 -.381E+02 -.172E+02   -.196E+02 0.497E+02 0.187E+02   0.157E+01 -.117E+02 -.151E+01   -.705E-02 0.746E-03 0.169E-02
   -.573E+02 -.253E+02 -.194E+02   0.668E+02 0.292E+02 0.245E+02   -.948E+01 -.386E+01 -.505E+01   0.107E-01 0.338E-02 0.593E-03
   0.573E+02 -.253E+02 -.194E+02   -.668E+02 0.292E+02 0.245E+02   0.948E+01 -.386E+01 -.505E+01   -.107E-01 0.338E-02 0.562E-03
   -.112E+02 0.521E+02 0.220E+01   0.380E+01 -.622E+02 -.265E+01   0.736E+01 0.993E+01 0.366E+00   0.749E-02 -.505E-02 0.113E-02
   0.112E+02 0.521E+02 0.220E+01   -.380E+01 -.622E+02 -.265E+01   -.736E+01 0.993E+01 0.366E+00   -.748E-02 -.506E-02 0.110E-02
   -.133E+02 -.276E+02 -.266E+02   0.233E+02 0.346E+02 0.284E+02   -.100E+02 -.683E+01 -.180E+01   0.225E-02 0.196E-02 0.173E-02
   0.133E+02 -.276E+02 -.266E+02   -.233E+02 0.346E+02 0.284E+02   0.100E+02 -.683E+01 -.180E+01   -.226E-02 0.196E-02 0.175E-02
   -.176E+02 -.464E+02 -.138E+02   0.253E+02 0.563E+02 0.149E+02   -.770E+01 -.964E+01 -.114E+01   0.132E-02 0.298E-02 0.114E-02
   0.176E+02 -.464E+02 -.138E+02   -.253E+02 0.563E+02 0.149E+02   0.770E+01 -.964E+01 -.114E+01   -.133E-02 0.297E-02 0.115E-02
   0.849E+01 0.334E+02 0.257E+02   -.647E+01 -.425E+02 -.318E+02   -.201E+01 0.920E+01 0.622E+01   0.241E-02 -.187E-02 -.983E-03
   -.849E+01 0.334E+02 0.257E+02   0.647E+01 -.425E+02 -.318E+02   0.201E+01 0.920E+01 0.622E+01   -.241E-02 -.187E-02 -.995E-03
   0.200E+02 0.268E+02 0.152E+02   -.281E+02 -.332E+02 -.185E+02   0.800E+01 0.641E+01 0.332E+01   0.469E-02 -.174E-02 -.154E-02
   -.200E+02 0.268E+02 0.152E+02   0.281E+02 -.332E+02 -.185E+02   -.800E+01 0.641E+01 0.332E+01   -.469E-02 -.173E-02 -.151E-02
   -.531E+02 -.311E+02 -.198E+01   0.530E+02 0.426E+02 0.321E+01   0.141E-01 -.115E+02 -.112E+01   0.899E-02 0.628E-03 -.113E-02
   0.531E+02 -.311E+02 -.198E+01   -.530E+02 0.426E+02 0.321E+01   -.141E-01 -.115E+02 -.112E+01   -.897E-02 0.618E-03 -.110E-02
   -.401E+02 -.179E+02 -.476E+02   0.405E+02 0.191E+02 0.515E+02   -.445E+00 -.131E+01 -.390E+01   0.840E-02 -.360E-03 0.138E-02
   0.401E+02 -.179E+02 -.476E+02   -.405E+02 0.191E+02 0.515E+02   0.445E+00 -.131E+01 -.390E+01   -.841E-02 -.359E-03 0.138E-02
   0.137E+02 0.254E+02 0.352E+02   -.155E+02 -.272E+02 -.378E+02   0.178E+01 0.190E+01 0.274E+01   0.562E-02 -.227E-04 -.103E-02
   -.137E+02 0.254E+02 0.352E+02   0.155E+02 -.272E+02 -.378E+02   -.178E+01 0.190E+01 0.274E+01   -.562E-02 -.455E-05 -.106E-02
   -.254E+02 -.254E+02 -.394E+02   0.267E+02 0.266E+02 0.432E+02   -.127E+01 -.129E+01 -.378E+01   0.624E-02 0.161E-02 0.109E-02
   0.254E+02 -.254E+02 -.394E+02   -.267E+02 0.266E+02 0.432E+02   0.127E+01 -.129E+01 -.378E+01   -.623E-02 0.160E-02 0.110E-02
   -.415E+02 -.321E+02 -.440E+02   0.417E+02 0.352E+02 0.466E+02   -.164E+00 -.306E+01 -.270E+01   0.758E-02 0.287E-02 0.200E-02
   0.415E+02 -.321E+02 -.440E+02   -.417E+02 0.352E+02 0.466E+02   0.164E+00 -.306E+01 -.270E+01   -.757E-02 0.287E-02 0.198E-02
   -.104E+02 0.660E+02 0.219E+02   0.117E+02 -.699E+02 -.239E+02   -.128E+01 0.386E+01 0.209E+01   -.623E-03 -.511E-02 -.136E-02
   0.104E+02 0.660E+02 0.219E+02   -.117E+02 -.699E+02 -.239E+02   0.128E+01 0.386E+01 0.209E+01   0.620E-03 -.512E-02 -.138E-02
   0.311E+02 -.133E+02 -.488E+02   -.353E+02 0.133E+02 0.513E+02   0.413E+01 0.385E-01 -.251E+01   -.799E-03 0.868E-03 0.339E-02
   -.311E+02 -.133E+02 -.488E+02   0.353E+02 0.133E+02 0.513E+02   -.413E+01 0.385E-01 -.251E+01   0.783E-03 0.875E-03 0.341E-02
   -.342E+01 -.129E+02 -.208E+02   0.606E+01 0.121E+02 0.245E+02   -.262E+01 0.760E+00 -.356E+01   0.162E-02 0.147E-02 0.137E-02
   0.342E+01 -.129E+02 -.208E+02   -.606E+01 0.121E+02 0.245E+02   0.262E+01 0.760E+00 -.356E+01   -.164E-02 0.148E-02 0.136E-02
   0.424E+02 0.107E+02 0.535E+02   -.466E+02 -.116E+02 -.571E+02   0.414E+01 0.803E+00 0.358E+01   -.923E-04 -.642E-03 -.274E-02
   -.424E+02 0.107E+02 0.535E+02   0.466E+02 -.116E+02 -.571E+02   -.414E+01 0.803E+00 0.358E+01   0.838E-04 -.641E-03 -.276E-02
   -.560E+02 0.271E+02 0.588E+02   0.560E+02 -.283E+02 -.630E+02   -.253E-04 0.117E+01 0.432E+01   0.128E-01 -.432E-02 -.334E-02
   0.560E+02 0.271E+02 0.588E+02   -.560E+02 -.283E+02 -.630E+02   0.253E-04 0.117E+01 0.432E+01   -.128E-01 -.431E-02 -.334E-02
   0.541E+02 0.537E+02 0.214E+02   -.571E+02 -.570E+02 -.224E+02   0.294E+01 0.325E+01 0.108E+01   -.278E-03 -.243E-02 -.190E-02
   -.541E+02 0.537E+02 0.214E+02   0.571E+02 -.570E+02 -.224E+02   -.294E+01 0.325E+01 0.108E+01   0.256E-03 -.243E-02 -.187E-02
   0.668E+02 0.341E+02 0.207E+02   -.704E+02 -.356E+02 -.223E+02   0.355E+01 0.154E+01 0.170E+01   0.273E-02 -.265E-02 -.563E-03
   -.668E+02 0.341E+02 0.207E+02   0.704E+02 -.356E+02 -.223E+02   -.355E+01 0.154E+01 0.170E+01   -.275E-02 -.266E-02 -.554E-03
   -.566E+02 0.131E+02 0.397E+02   0.581E+02 -.146E+02 -.433E+02   -.147E+01 0.145E+01 0.355E+01   0.101E-01 0.552E-03 -.431E-02
   0.566E+02 0.131E+02 0.397E+02   -.581E+02 -.146E+02 -.433E+02   0.147E+01 0.145E+01 0.355E+01   -.101E-01 0.566E-03 -.427E-02
   -.479E+02 -.301E+02 0.229E+02   0.526E+02 0.322E+02 -.254E+02   -.460E+01 -.212E+01 0.242E+01   0.577E-02 0.296E-02 -.165E-02
   0.479E+02 -.301E+02 0.229E+02   -.526E+02 0.322E+02 -.254E+02   0.460E+01 -.212E+01 0.242E+01   -.575E-02 0.295E-02 -.162E-02
   -.113E+03 -.398E+02 -.356E+02   0.118E+03 0.410E+02 0.369E+02   -.500E+01 -.118E+01 -.137E+01   0.156E-01 0.419E-02 0.674E-02
   0.113E+03 -.398E+02 -.356E+02   -.118E+03 0.410E+02 0.369E+02   0.500E+01 -.118E+01 -.137E+01   -.156E-01 0.419E-02 0.672E-02
   -.764E+02 -.113E+02 0.365E+02   0.802E+02 0.125E+02 -.382E+02   -.374E+01 -.119E+01 0.181E+01   0.114E-01 0.111E-03 -.176E-02
   0.764E+02 -.113E+02 0.365E+02   -.802E+02 0.125E+02 -.382E+02   0.374E+01 -.119E+01 0.181E+01   -.114E-01 0.113E-03 -.176E-02
   0.422E+02 -.116E+02 -.194E+02   -.461E+02 0.120E+02 0.215E+02   0.384E+01 -.404E+00 -.205E+01   0.412E-02 0.926E-03 0.816E-03
   -.422E+02 -.116E+02 -.194E+02   0.461E+02 0.120E+02 0.215E+02   -.384E+01 -.404E+00 -.205E+01   -.412E-02 0.925E-03 0.790E-03
   0.781E-04 0.796E+01 0.138E+02   0.171E-12 -.711E-13 0.711E-13   -.888E-15 -.824E+01 -.140E+02   -.286E-04 0.160E-02 0.631E-02

 POSITION                                       TOTAL-FORCE (eV/Angst)
      9.55320      8.14718      0.06482         0.011140     -0.001728      0.023276
      9.37088     12.47387      4.59368        -0.011140     -0.001728      0.023276
      0.94988      7.66513      7.13162         0.031619     -0.014642      0.032874
     17.97420      3.33844      2.60276        -0.031619     -0.014642      0.032874
      5.20042      6.59471      4.90780         0.397278      0.347141      0.037558
     13.72366      2.26802      0.37894        -0.397278      0.347141      0.037558
      8.60040      8.86740      3.96806         0.228123     -0.012860     -0.559226
     10.32368     13.19409      8.49692        -0.228123     -0.012860     -0.559226
      4.05383      9.67431      6.70361        -0.229816     -0.685673     -0.100274
     14.87025      5.34762      2.17475         0.229816     -0.685673     -0.100274
      5.07170     15.51072      8.92074        -0.496126     -0.207545     -0.266784
     13.85238     11.18403      4.39187         0.496126     -0.207545     -0.266784
      6.94058     12.37266      7.07931         0.388238      0.399944     -0.055178
     11.98350      8.04597      2.55044        -0.388238      0.399944     -0.055178
      2.36589      4.14669      4.19699        -0.515340     -0.179701     -0.156779
     16.55819      8.47338      8.72585         0.515340     -0.179701     -0.156779
      0.89917      6.76594      1.83978        -0.461590     -0.244931     -0.122166
     18.02491     11.09263      6.36864         0.461590     -0.244931     -0.122166
      2.71855      3.83776      0.19598        -0.082408      0.517507      0.389338
     16.20552      8.16445      4.72484         0.082408      0.517507      0.389338
      4.14843      9.50956      2.59148         0.374717      0.345054      0.197070
     14.77565     13.83625      7.12035        -0.374717      0.345054      0.197070
      6.53216      3.63857      2.36019        -0.131533     -0.628591      0.056391
     12.39192      7.96526      6.88906         0.131533     -0.628591      0.056391
      5.08316     11.16852      4.20385        -0.011106     -0.186739     -0.479063
     13.84092     15.49521      8.73271         0.011106     -0.186739     -0.479063
      4.33862     13.78419      7.31822         0.159982      0.288615      0.357757
     14.58546      9.45750      2.78935        -0.159982      0.288615      0.357757
      3.78818      5.48684      1.75322        -0.084261     -0.176131     -0.454855
     15.13590      9.81353      6.28208         0.084261     -0.176131     -0.454855
      7.65690     13.74695      9.00013         0.012690     -0.347102     -0.404739
     11.26717      9.42026      4.47127        -0.012690     -0.347102     -0.404739
      9.42164     11.56649      6.85939        -0.099737      0.381491      0.290506
      9.50243      7.23980      2.33053         0.099737      0.381491      0.290506
      0.16556      5.35172      3.77436         0.390698     -0.009585     -0.265395
     18.75852      9.67841      8.30323        -0.390698     -0.009585     -0.265395
      1.58458     11.63009      6.26471        -0.242482      0.092962     -0.294622
     17.33949      7.30340      1.73585         0.242482      0.092962     -0.294622
      0.65586     13.92188      8.95835         0.398325      0.030410      0.402801
     18.26822      9.59519      4.42948        -0.398325      0.030410      0.402801
      5.43453      2.11132      0.73315         0.017756      0.116851      0.523885
     13.48954      6.43801      5.26201        -0.017756      0.116851      0.523885
      1.75601      2.55630      2.39621         0.263825      0.350206      0.211064
     17.16806      6.88299      6.92507        -0.263825      0.350206      0.211064
      2.93048      8.28583      5.03429         0.392715      0.240166      0.286578
     15.99359      3.95914      0.50543        -0.392715      0.240166      0.286578
      6.23865      7.89734      2.92521        -0.174971      0.063866      0.312285
     12.68543     12.22403      7.45407         0.174971      0.063866      0.312285
      8.71882     11.05218      2.70305        -0.345400     -0.193130      0.151593
     10.20526     15.37887      7.23192         0.345400     -0.193130      0.151593
      6.15559      8.19321      6.60384        -0.509871     -0.127777     -0.206686
     12.76849      3.86652      2.07497         0.509871     -0.127777     -0.206686
      7.47499      5.22663      5.18232        -0.320169     -0.133772      0.305728
     11.44909      0.89994      0.65345         0.320169     -0.133772      0.305728
      3.03477      8.34555      8.63042         0.417864     -0.024305     -0.212936
     15.88931      4.01886      4.10156        -0.417864     -0.024305     -0.212936
    total drift:                                0.000049     -0.148029     -0.317082

  FREE ENERGIE OF THE ION-ELECTRON SYSTEM (eV)
  free  energy   TOTEN  =      -296.32879853 eV

  energy  without entropy=     -296.32879853  energy(sigma->0) =     -296.32879853

 total charge

# of ion       s       p       d       tot
    1        0.076   0.121   0.000   0.197
    2        0.076   0.121   0.000   0.197
    3        0.050   0.076   0.000   0.126
    4        0.050   0.076   0.000   0.126
    5        1.320   0.995   0.077   2.391
    6        1.320   0.995   0.077   2.391
    7        1.301   1.030   0.069   2.400
    8        1.301   1.030   0.069   2.400
    9        1.291   1.070   0.074   2.436
   10        1.291   1.070   0.074   2.436
   11        1.320   1.018   0.075   2.413
   12        1.320   1.018   0.075   2.413
   13        1.282   1.081   0.074   2.438
   14        1.282   1.081   0.074   2.438
   15        1.290   1.079   0.074   2.443
   16        1.290   1.079   0.074   2.443
   17        1.281   1.094   0.071   2.446
   18        1.281   1.094   0.071   2.446
   19        1.319   1.003   0.073   2.395
   20        1.319   1.003   0.073   2.395
   21        1.331   0.985   0.075   2.391
   22        1.331   0.985   0.075   2.391
   23        1.317   1.016   0.071   2.404
   24        1.317   1.016   0.071   2.404
   25        1.350   2.346   0.000   3.696
   26        1.350   2.346   0.000   3.696
   27        1.351   2.345   0.000   3.696
   28        1.351   2.345   0.000   3.696
   29        1.351   2.340   0.000   3.691
   30        1.351   2.340   0.000   3.691
   31        1.354   2.334   0.000   3.688
   32        1.354   2.334   0.000   3.688
   33        1.346   2.362   0.000   3.708
   34        1.346   2.362   0.000   3.708
   35        1.352   2.348   0.000   3.700
   36        1.352   2.348   0.000   3.700
   37        1.352   2.343   0.000   3.694
   38        1.352   2.343   0.000   3.694
   39        1.356   2.334   0.000   3.691
   40        1.356   2.334   0.000   3.691
   41        1.351   2.341   0.000   3.691
   42        1.351   2.341   0.000   3.691
   43        1.353   2.337   0.000   3.689
   44        1.353   2.337   0.000   3.689
   45        1.350   2.344   0.000   3.695
   46        1.350   2.344   0.000   3.695
   47        1.354   2.331   0.000   3.685
   48        1.354   2.331   0.000   3.685
   49        1.348   2.351   0.000   3.698
   50        1.348   2.351   0.000   3.698
   51        1.356   2.329   0.000   3.685
   52        1.356   2.329   0.000   3.685
   53        1.344   2.363   0.000   3.707
   54        1.344   2.363   0.000   3.707
   55        1.350   2.350   0.000   3.700
   56        1.350   2.350   0.000   3.700
tot         69.595  96.130   1.465 167.190