 vasp.5.4.4.18Apr17-6-g9f103f2a35 (build Oct 27 2022 13:04:57) complex

 executed on             LinuxIFC date 2024.07.04  08:32:38

 INCAR:
 POTCAR:    PAW_PBE Li 17Jan2003
 POTCAR:    PAW_PBE Bi 08Apr2002
 POTCAR:    PAW_PBE S 06Sep2000

 POTCAR:    PAW_PBE Li 17Jan2003
   VRHFIN =Li: s1p0

   TITEL  = PAW_PBE Li 17Jan2003
   POMASS =    7.010; ZVAL   =    1.000    mass and valenz
   ENMAX  =  140.000; ENMIN  =  100.000 eV

 POTCAR:    PAW_PBE Bi 08Apr2002
   VRHFIN =Bi:

   TITEL  = PAW_PBE Bi 08Apr2002
   POMASS =  208.980; ZVAL   =    5.000    mass and valenz
   ENMAX  =  105.037; ENMIN  =   78.777 eV

 POTCAR:    PAW_PBE S 06Sep2000
   VRHFIN =S : s2p4

   TITEL  = PAW_PBE S 06Sep2000
   POMASS =   32.066; ZVAL   =    6.000    mass and valenz
   ENMAX  =  258.689; ENMIN  =  194.016 eV

 Optimization of the real space projectors (new method)

 maximal supplied QI-value         = 18.33
 optimisation between [QCUT,QGAM] = [  8.80, 17.60] = [ 21.68, 86.71] Ry
 Optimized for a Real-space Cutoff    1.15 Angstroem

   l    n(q)    QCUT    max X(q) W(low)/X(q) W(high)/X(q)  e(spline)
   0      6     8.799    33.825    0.11E-02    0.11E-02    0.82E-07
   0      6     8.799     8.944    0.75E-03    0.85E-03    0.59E-07
   1      5     8.799     4.214    0.92E-03    0.27E-03    0.41E-07
 Optimization of the real space projectors (new method)

[...]

   l    n(q)    QCUT    max X(q) W(low)/X(q) W(high)/X(q)  e(spline)
   0      8     8.855    93.365    0.12E-03    0.22E-03    0.92E-07
   0      8     8.855    75.373    0.13E-03    0.24E-03    0.10E-06
   1      8     8.855    32.978    0.17E-02    0.62E-03    0.17E-06
   1      8     8.855    35.433    0.19E-02    0.68E-03    0.19E-06
   2      7     8.855     8.108    0.22E-03    0.34E-03    0.64E-07
 Optimization of the real space projectors (new method)

 maximal supplied QI-value         = 19.84
 optimisation between [QCUT,QGAM] = [  8.73, 17.66] = [ 21.34, 87.33] Ry
 Optimized for a Real-space Cutoff    1.22 Angstroem

   l    n(q)    QCUT    max X(q) W(low)/X(q) W(high)/X(q)  e(spline)
   0      6     8.731   187.594    0.15E-02    0.56E-03    0.90E-07
   0      6     8.731   164.243    0.15E-02    0.56E-03    0.89E-07
   1      6     8.731    67.533    0.37E-03    0.20E-02    0.11E-06
   1      6     8.731    50.729    0.36E-03    0.19E-02    0.10E-06
  PAW_PBE Li 17Jan2003                  :
  PAW_PBE Bi 08Apr2002                  :
  PAW_PBE S 06Sep2000                   :

 POSCAR: Li4 Bi8 S14
  positions in direct lattice
 exchange correlation table for  LEXCH =        8
   RHO(1)=    0.500       N(1)  =     2000
   RHO(2)=  100.500       N(2)  =     4000

 ion  position               nearest neighbor table
   1  0.250  0.568  0.812-
   2  0.750  0.432  0.188-
   3  0.750  0.829  0.623-
   4  0.250  0.171  0.377-
   5  0.250  0.946  0.880-  18 2.80  19 2.93  19 2.93  26 3.02  26 3.02  25 3.17
   6  0.750  0.054  0.120-  17 2.80  20 2.93  20 2.93  25 3.02  25 3.02  26 3.17
   7  0.250  0.832  0.275-  21 2.85  23 2.91  23 2.91  17 3.00  17 3.00  25 3.06
   8  0.750  0.168  0.725-  22 2.85  24 2.91  24 2.91  18 3.00  18 3.00  26 3.06
   9  0.750  0.731  0.051-  15 2.79  15 2.79  23 2.96  19 2.98  25 3.21  25 3.21
  10  0.250  0.269  0.949-  16 2.79  16 2.79  24 2.96  20 2.98  26 3.21  26 3.21
  11  0.750  0.607  0.428-  14 2.84  21 2.96  21 2.96  13 2.99  13 2.99  23 3.05
  12  0.250  0.393  0.572-  13 2.84  22 2.96  22 2.96  14 2.99  14 2.99  24 3.05
  13  0.250  0.458  0.393-  12 2.84  11 2.99  11 2.99
  14  0.750  0.542  0.607-  11 2.84  12 2.99  12 2.99
  15  0.250  0.598  0.038-   9 2.79   9 2.79
  16  0.750  0.402  0.962-  10 2.79  10 2.79
  17  0.750  0.986  0.295-   6 2.80   7 3.00   7 3.00
  18  0.250  0.014  0.705-   5 2.80   8 3.00   8 3.00
  19  0.750  0.798  0.863-   5 2.93   5 2.93   9 2.98
  20  0.250  0.202  0.137-   6 2.93   6 2.93  10 2.98
  21  0.250  0.755  0.452-   7 2.85  11 2.96  11 2.96
  22  0.750  0.245  0.548-   8 2.85  12 2.96  12 2.96
  23  0.750  0.692  0.240-   7 2.91   7 2.91   9 2.96  11 3.05
  24  0.250  0.308  0.760-   8 2.91   8 2.91  10 2.96  12 3.05
  25  0.250  0.904  0.083-   6 3.02   6 3.02   7 3.06   5 3.17   9 3.21   9 3.21
  26  0.750  0.096  0.917-   5 3.02   5 3.02   8 3.06   6 3.17  10 3.21  10 3.21

  LATTYP: Found a simple monoclinic cell.
 ALAT       =    21.3605926023
 B/A-ratio  =     0.1986841797
 C/A-ratio  =     1.5026816239
 COS(beta)  =    -0.9528717542

  Lattice vectors:

 A1 = (   0.0000000000, -14.6430014100, -15.5517660100)
 A2 = (  -4.2440118200,   0.0000000000,   0.0000000000)
 A3 = (   0.0000000000,  28.0564101800,  15.5926381300)

Analysis of symmetry for initial positions (statically):
 Subroutine PRICEL returns:
 Original cell was already a primitive cell.

 Routine SETGRP: Setting up the symmetry group for a
 simple monoclinic supercell.

 Subroutine GETGRP returns: Found  4 space group operations
 (whereof  2 operations were pure point group operations)
 out of a pool of  4 trial point group operations.

The static configuration has the point symmetry S_2 .
 The point group associated with its full space group is C_2h.

Analysis of symmetry for dynamics (positions and initial velocities):
 Subroutine PRICEL returns:
 Original cell was already a primitive cell.

 Routine SETGRP: Setting up the symmetry group for a
 simple monoclinic supercell.

 Subroutine GETGRP returns: Found  4 space group operations
 (whereof  2 operations were pure point group operations)
 out of a pool of  4 trial point group operations.

The dynamic configuration has the point symmetry S_2 .
 The point group associated with its full space group is C_2h.

 Subroutine INISYM returns: Found  4 space group operations
 (whereof  2 operations are pure point group operations),
 and found     1 'primitive' translations

 KPOINTS: pymatgen with grid density = 807 / numbe

Automatic generation of k-mesh.
Space group operators:
 irot       det(A)        alpha          n_x          n_y          n_z        tau_x        tau_y        tau_z
    1     1.000000     0.000000     1.000000     0.000000     0.000000     0.000000     0.000000     0.000000
    2    -1.000000     0.000000     1.000000     0.000000     0.000000     0.000000     0.000000     0.000000
    3     1.000000   180.000000     1.000000     0.000000     0.000000    -0.500000    -0.000000    -0.000000
    4    -1.000000   180.000000     1.000000     0.000000     0.000000    -0.500000     0.000000     0.000000

 Subroutine IBZKPT returns following result:

 Found      6 irreducible k-points:

 Following reciprocal coordinates:
            Coordinates               Weight
  0.000000  0.250000  0.250000      2.000000
  0.200000  0.250000  0.250000      4.000000
  0.400000  0.250000  0.250000      4.000000
  0.000000 -0.250000  0.250000      2.000000
  0.200000 -0.250000  0.250000      4.000000
  0.400000 -0.250000  0.250000      4.000000

 Following cartesian coordinates:
            Coordinates               Weight
  0.000000  0.018593  0.014644      2.000000
  0.047125  0.018593  0.014644      4.000000
  0.094250  0.018593  0.014644      4.000000
  0.000000 -0.018692  0.017599      2.000000
  0.047125 -0.018692  0.017599      4.000000
  0.094250 -0.018692  0.017599      4.000000

 SYSTEM =  CIS
 POSCAR =  Li4 Bi8 S14

 Startparameter for this run:
   NWRITE =      2    write-flag & timer
   PREC   = medium    normal or accurate (medium, high low for compatibility)
   ISTART =      0    job   : 0-new  1-cont  2-samecut
   ICHARG =      2    charge: 1-file 2-atom 10-const
   ISPIN  =      1    spin polarized calculation?
   LNONCOLLINEAR =      F non collinear calculations
   LSORBIT =      F    spin-orbit coupling
   INIWAV =      1    electr: 0-lowe 1-rand  2-diag
   LASPH  =      T    aspherical Exc in radial PAW
   METAGGA=      F    non-selfconsistent MetaGGA calc.

 Electronic Relaxation 1
   ENCUT  =  300.0 eV  22.05 Ry    4.70 a.u.   5.99 18.94 21.97*2*pi/ulx,y,z
   ENINI  =  300.0     initial cutoff
   ENAUG  =  335.1 eV  augmentation charge cutoff
   NELM   =     60;   NELMIN=  2; NELMDL= -5     # of ELM steps
   EDIFF  = 0.1E-03   stopping-criterion for ELM
   LREAL  =      T    real-space projection
   NLSPLINE    = F    spline interpolate recip. space projectors
   LCOMPAT=      F    compatible to vasp.4.4
   GGA_COMPAT  = T    GGA compatible to vasp.4.4-vasp.4.6
   LMAXPAW     = -100 max onsite density
   LMAXMIX     =    4 max onsite mixed and CHGCAR
   VOSKOWN=      0    Vosko Wilk Nusair interpolation
   ROPT   =   -0.00200  -0.00200  -0.00200
 Ionic relaxation
   EDIFFG = -.5E-01   stopping-criterion for IOM
   NSW    =     99    number of steps for IOM
   NBLOCK =      1;   KBLOCK =     99    inner block; outer block
   IBRION =      2    ionic relax: 0-MD 1-quasi-New 2-CG
   NFREE  =      1    steps in history (QN), initial steepest desc. (CG)
   ISIF   =      3    stress and relaxation
   IWAVPR =     11    prediction:  0-non 1-charg 2-wave 3-comb
   ISYM   =      2    0-nonsym 1-usesym 2-fastsym
   LCORR  =      T    Harris-Foulkes like correction to forces

   POTIM  = 0.1000    time-step for ionic-motion
   TEIN   =    0.0    initial temperature
   TEBEG  =    0.0;   TEEND  =   0.0 temperature during run
   SMASS  =  -3.00    Nose mass-parameter (am)
   estimated Nose-frequenzy (Omega)   =  0.10E-29 period in steps =****** mass=  -0.412E-27a.u.
   SCALEE = 1.0000    scale energy and forces
   NPACO  =    256;   APACO  = 16.0  distance and # of slots for P.C.
   PSTRESS=    0.0 pullay stress

  Mass of Ions in am
   POMASS =   7.01208.98 32.07
  Ionic Valenz
   ZVAL   =   1.00  5.00  6.00
  Atomic Wigner-Seitz radii
  virtual crystal weights
   VCA    =   1.00  1.00  1.00
   NELECT =     128.0000    total number of electrons
   NUPDOWN=      -1.0000    fix difference up-down

 DOS related values:
   EMIN   =  10.00;   EMAX   =-10.00  energy-range for DOS
   EFERMI =   0.00
   ISMEAR =     0;   SIGMA  =   0.05  broadening in eV -4-tet -1-fermi 0-gaus

 Electronic relaxation 2 (details)
   IALGO  =     38    algorithm
   LDIAG  =      T    sub-space diagonalisation (order eigenvalues)
   LSUBROT=      F    optimize rotation matrix (better conditioning)
   TURBO    =      0    0=normal 1=particle mesh
   IRESTART =      0    0=no restart 2=restart with 2 vectors
   NREBOOT  =      0    no. of reboots
   NMIN     =      0    reboot dimension
   EREF     =   0.00    reference energy to select bands
   IMIX   =      4    mixing-type and parameters
     AMIX     =   0.40;   BMIX     =  1.00
     AMIX_MAG =   1.60;   BMIX_MAG =  1.00
     AMIN     =   0.10
     WC   =   100.;   INIMIX=   1;  MIXPRE=   1;  MAXMIX= -45

 Intra band minimization:
   WEIMIN = 0.0010     energy-eigenvalue tresh-hold
   EBREAK =  0.30E-06  absolut break condition
   DEPER  =   0.30     relativ break condition

   TIME   =   0.40     timestep for ELM

  volume/ion in A,a.u.               =      33.95       229.12
  Fermi-wavevector in a.u.,A,eV,Ry     =   0.860060  1.625278 10.064282  0.739704
  Thomas-Fermi vector in A             =   1.977509

 Write flags
   LWAVE        =      F    write WAVECAR
[...]
 d Force = 0.6985062E+00[-0.734E+00, 0.213E+01]  d Ewald  = 0.5933893E+00 0.105E+00

[...]

 d Force =-0.8379679E-02[-0.228E-01, 0.607E-02]  d Energy = 0.1551471E-01-0.239E-01
 d Force = 0.2979063E+01[ 0.238E+01, 0.358E+01]  d Ewald  = 0.3520920E+01-0.542E+00

[...]

 d Force = 0.1970105E-01[-0.290E-02, 0.423E-01]  d Energy = 0.2589696E-01-0.620E-02
 d Force = 0.1169307E+02[ 0.114E+02, 0.120E+02]  d Ewald  = 0.7665717E+01 0.403E+01

[...]

 d Force = 0.3499712E-02[ 0.303E-02, 0.397E-02]  d Energy = 0.5899551E-03 0.291E-02
 d Force =-0.4229155E+00[-0.425E+00,-0.420E+00]  d Ewald  = 0.4333298E+01-0.476E+01

[...]

 d Force = 0.1094972E-02[ 0.921E-03, 0.127E-02]  d Energy = 0.6078296E-03 0.487E-03
 d Force = 0.9262100E+00[ 0.924E+00, 0.929E+00]  d Ewald  =-0.2693045E+01 0.362E+01

[...]

 d Force = 0.3884660E-02[ 0.170E-02, 0.607E-02]  d Energy =-0.8742920E-03 0.476E-02
 d Force = 0.3557488E+01[ 0.355E+01, 0.356E+01]  d Ewald  = 0.3447871E+01 0.110E+00

[...]

 d Force =-0.1924557E-02[-0.282E-02,-0.103E-02]  d Energy = 0.1534518E-02-0.346E-02
 d Force =-0.2167641E+01[-0.217E+01,-0.217E+01]  d Ewald  =-0.2093395E+01-0.742E-01

[...]

 d Force = 0.3407684E-02[-0.129E-02, 0.811E-02]  d Energy = 0.1866454E-02 0.154E-02
 d Force = 0.4281420E+01[ 0.424E+01, 0.433E+01]  d Ewald  = 0.4522927E+01-0.242E+00

[...]

 d Force = 0.9697279E-04[-0.149E-03, 0.343E-03]  d Energy = 0.6353344E-03-0.538E-03
 d Force =-0.1128844E+01[-0.113E+01,-0.113E+01]  d Ewald  =-0.1193308E+01 0.645E-01

[...]

 Conjugate gradient step on ions:
 trial-energy change:   -0.001886  1 .order   -0.002396   -0.004231   -0.000562
  (g-gl).g = 0.860E-03      g.g   = 0.878E-03  gl.gl    = 0.974E-03
 g(Force)  = 0.294E-03   g(Stress)= 0.584E-03 ortho     =-0.118E-03
 gamma     =   0.88257
 trial     =   5.46764
 opt step  =   6.30544  (harmonic =   6.30544) maximal distance =0.00934146
 next E    =  -111.411854   (d E  =  -0.00244)

[...]

 d Force = 0.5931137E-04[ 0.387E-04, 0.799E-04]  d Energy = 0.1348062E-04 0.458E-04
 d Force = 0.1484159E+00[ 0.148E+00, 0.149E+00]  d Ewald  = 0.6826889E-01 0.801E-01

[...]

 eigenvalue-minimisations  :  1246
 total energy-change (2. order) :-0.2353751E-03  (-0.3590854E-03)
 number of electron     128.0000631 magnetization
 augmentation part      -24.3470790 magnetization

 Broyden mixing:
  rms(total) = 0.64038E-02    rms(broyden)= 0.64032E-02
  rms(prec ) = 0.70258E-02
  weight for this iteration     100.00

 eigenvalues of (default mixing * dielectric matrix)
  average eigenvalue GAMMA=   0.7366
  0.7366

[...]

--------------------------------------- Iteration     89(   3)  ---------------------------------------

 eigenvalue-minimisations  :   742
 total energy-change (2. order) : 0.2707459E-04  (-0.1047500E-04)
 number of electron     128.0000631 magnetization
 augmentation part      -24.3470790 magnetization

 Free energy of the ion-electron system (eV)
  alpha Z        PSCENC =        89.39045636
  Ewald energy   TEWEN  =     -4494.59000618
  -Hartree energ DENC   =      -862.38221651
  -exchange      EXHF   =         0.00000000
  -V(xc)+E(xc)   XCENC  =      -720.97267424
  PAW double counting   =      8817.79376566    -7816.85634041
  entropy T*S    EENTRO =        -0.00000000
  eigenvalues    EBANDS =      -226.91458693
  atomic energy  EATOM  =      5103.11921817
  Solvation  Ediel_sol  =         0.00000000
  free energy    TOTEN  =      -111.41238408 eV

  energy without entropy =     -111.41238408  energy(sigma->0) =     -111.41238408

 average (electrostatic) potential at core
  the test charge radii are     0.9748  1.4024  0.9698
  (the norm of the test charge is              1.0000)
       1 -26.2303       2 -26.2303       3 -26.4548       4 -26.4548       5 -63.5944
       6 -63.5944       7 -63.6428       8 -63.6428       9 -63.5878      10 -63.5878
      11 -63.7954      12 -63.7954      13 -87.1324      14 -87.1324      15 -86.9006
      16 -86.9006      17 -87.0290      18 -87.0290      19 -87.1972      20 -87.1972
      21 -87.2217      22 -87.2217      23 -87.2283      24 -87.2283      25 -87.2034
      26 -87.2034

 E-fermi :   3.6180     XC(G=0):  -8.8831     alpha+bet : -9.5607

[...]

 k-point     6 :       0.4000   -0.2500    0.2500
  band No.  band energies     occupation
      1      -9.1701      2.00000
      2      -9.0948      2.00000
      3      -8.7128      2.00000
      4      -8.6456      2.00000
      5      -8.6223      2.00000
      6      -8.3454      2.00000
      7      -8.2683      2.00000
      8      -8.1939      2.00000
      9      -8.1691      2.00000
     10      -8.1042      2.00000
     11      -8.0966      2.00000
     12      -8.0514      2.00000
     13      -7.9215      2.00000
     14      -7.8682      2.00000
     15      -6.8990      2.00000
     16      -6.5809      2.00000
     17      -6.4854      2.00000
     18      -6.4640      2.00000
     19      -6.2794      2.00000
     20      -6.2032      2.00000
     21      -5.9066      2.00000
     22      -5.7835      2.00000
     23      -1.1251      2.00000
     24      -1.0654      2.00000
     25      -0.9491      2.00000
     26      -0.8945      2.00000
     27      -0.6177      2.00000
     28      -0.5442      2.00000
     29      -0.4354      2.00000
     30      -0.2090      2.00000
     31      -0.1999      2.00000
     32      -0.0913      2.00000
     33       0.0657      2.00000
     34       0.2407      2.00000
     35       0.3403      2.00000
     36       0.3949      2.00000
     37       0.4141      2.00000
     38       0.5062      2.00000
     39       0.5532      2.00000
     40       0.7205      2.00000
     41       0.7473      2.00000
     42       0.8557      2.00000
     43       0.9993      2.00000
     44       1.1639      2.00000
     45       1.2937      2.00000
     46       1.4204      2.00000
     47       1.6588      2.00000
     48       1.7576      2.00000
     49       1.8023      2.00000
     50       1.8995      2.00000
     51       1.9608      2.00000
     52       2.0093      2.00000
     53       2.0789      2.00000
     54       2.1771      2.00000
     55       2.2951      2.00000
     56       2.3479      2.00000
     57       2.4103      2.00000
     58       2.4647      2.00000
     59       2.5151      2.00000
     60       2.6186      2.00000
[...]
     70       6.1553      0.00000
     71       6.3758      0.00000
     72       6.4027      0.00000
     73       6.5214      0.00000
     74       6.6874      0.00000
     75       6.7202      0.00000
     76       6.7715      0.00000
     77       6.9018      0.00000
     78       7.0627      0.00000
     79       7.0906      0.00000
     80       7.2296      0.00000
     81       7.3366      0.00000
     82       7.4264      0.00000
     83       7.5259      0.00000
     84       7.7315      0.00000

 soft charge-density along one line, spin component           1
         0         1         2         3         4         5         6         7         8         9
 total charge-density along one line

------------------------ aborting loop because EDIFF is reached ----------------------------------------

[...]

  FORCE on cell =-STRESS in cart. coord.  units (eV):
  Direction    XX          YY          ZZ          XY          YZ          ZX
  Alpha Z    89.39046    89.39046    89.39046
  Ewald   -1289.02624 -1613.86612 -1591.71099     0.00000  -161.42349     0.00000
  Hartree   418.40295   204.27987   239.80177    -0.00000  -116.51856    -0.00000
  E(xc)    -480.44293  -479.99134  -479.86899    -0.00000    -0.05576     0.00000
  Local   -1336.67586  -798.60363  -855.90775     0.00000   277.44276     0.00000
  n-local  1620.58105  1612.09120  1612.72861    -0.30545     0.33450     0.63826
  augment  -459.86620  -459.32151  -459.35486     0.00000    -0.13470     0.00000
  Kinetic  1437.72229  1446.22468  1444.94001     0.11493     0.50578     1.06006
  Fock        0.00000     0.00000     0.00000     0.00000     0.00000     0.00000
  Total       0.08552     0.20360     0.01825     0.00000     0.15053     0.00000
  in kB       0.20862     0.49667     0.04452     0.00000     0.36721     0.00000

 VOLUME and BASIS-vectors are now :
  energy-cutoff  :      300.00
  volume of cell :      656.77
      direct lattice vectors                 reciprocal lattice vectors
     3.997358033  0.000000000  0.000000000     0.250165232  0.000000000  0.000000000
     0.000000000 13.365808494 -0.945809578     0.000000000  0.074864225  0.000656465
     0.000000000 -0.107858566 12.300343573     0.000000000  0.005756530  0.081349020

  length of vectors
     3.997358033 13.399231040 12.300816456     0.250165232  0.074867103  0.081552441

 FORCES acting on ions
    electron-ion (+dipol)            ewald-force                    non-local-force                 convergence-correction
   -.796E-14 -.268E+01 -.244E+01   -.672E-16 0.275E+01 0.287E+01   0.000E+00 -.573E-01 -.459E+00   -.247E-15 0.141E-02 0.155E-02
   -.748E-14 0.268E+01 0.244E+01   0.336E-15 -.275E+01 -.287E+01   0.000E+00 0.573E-01 0.459E+00   0.432E-16 -.141E-02 -.155E-02
   -.730E-12 0.421E+01 0.428E+01   0.952E-15 -.407E+01 -.391E+01   0.217E-18 -.138E+00 -.399E+00   0.126E-16 -.315E-03 0.107E-02
   -.729E-12 -.421E+01 -.428E+01   0.525E-15 0.407E+01 0.391E+01   -.217E-18 0.138E+00 0.399E+00   -.239E-15 0.315E-03 -.107E-02
   0.183E-11 0.205E+02 0.991E+01   -.119E-13 -.193E+02 -.739E+01   0.000E+00 -.112E+01 -.253E+01   -.457E-14 -.764E-02 -.143E-01
   0.182E-11 -.205E+02 -.991E+01   0.678E-14 0.193E+02 0.739E+01   0.000E+00 0.112E+01 0.253E+01   0.390E-14 0.764E-02 0.143E-01
   0.111E-11 0.635E+01 -.179E+02   0.415E-14 -.458E+01 0.177E+02   0.000E+00 -.177E+01 0.165E+00   -.189E-14 0.406E-02 -.109E-02
   0.109E-11 -.635E+01 0.179E+02   0.424E-14 0.458E+01 -.177E+02   0.000E+00 0.177E+01 -.165E+00   0.192E-14 -.406E-02 0.109E-02
   0.193E-11 0.424E+02 0.857E+01   -.102E-14 -.391E+02 -.615E+01   -.694E-17 -.330E+01 -.242E+01   -.105E-15 -.782E-02 -.404E-02
   0.195E-11 -.424E+02 -.857E+01   -.115E-14 0.391E+02 0.615E+01   0.694E-17 0.330E+01 0.242E+01   -.224E-14 0.782E-02 0.404E-02
   0.153E-12 0.111E+02 -.132E+02   0.239E-14 -.112E+02 0.124E+02   0.000E+00 0.804E-01 0.836E+00   0.278E-14 0.593E-02 0.358E-03
   0.168E-12 -.111E+02 0.132E+02   -.196E-14 0.112E+02 -.124E+02   0.000E+00 -.804E-01 -.836E+00   -.463E-14 -.593E-02 -.358E-03
   0.126E-12 0.347E+02 0.565E+02   -.931E-14 -.358E+02 -.590E+02   -.108E-18 0.105E+01 0.252E+01   -.117E-14 -.163E-02 -.183E-01
   0.110E-12 -.347E+02 -.565E+02   0.103E-13 0.358E+02 0.590E+02   0.108E-18 -.105E+01 -.252E+01   0.141E-13 0.163E-02 0.183E-01
   0.339E-12 0.664E+02 0.186E+02   -.646E-14 -.707E+02 -.183E+02   0.000E+00 0.425E+01 -.298E+00   0.546E-14 0.171E-01 -.973E-03
   0.325E-12 -.664E+02 -.186E+02   0.892E-14 0.707E+02 0.183E+02   0.000E+00 -.425E+01 0.298E+00   0.962E-14 -.171E-01 0.973E-03
   -.307E-12 -.219E+02 -.560E+02   -.454E-14 0.233E+02 0.587E+02   0.000E+00 -.141E+01 -.282E+01   0.122E-13 0.290E-01 0.101E-01
   -.303E-12 0.219E+02 0.560E+02   -.455E-16 -.233E+02 -.587E+02   0.000E+00 0.141E+01 0.282E+01   -.150E-14 -.290E-01 -.101E-01
   -.516E-12 0.757E+02 0.476E+02   0.931E-14 -.781E+02 -.502E+02   0.694E-17 0.241E+01 0.261E+01   0.105E-13 -.144E-01 -.421E-01
   -.503E-12 -.757E+02 -.476E+02   -.106E-13 0.781E+02 0.502E+02   -.694E-17 -.241E+01 -.261E+01   0.391E-15 0.144E-01 0.421E-01
   -.451E-12 -.360E+01 -.538E+02   0.262E-14 0.556E+01 0.565E+02   -.347E-17 -.201E+01 -.268E+01   0.347E-14 0.268E-01 0.287E-01
   -.456E-12 0.360E+01 0.538E+02   -.520E-14 -.556E+01 -.565E+02   0.347E-17 0.201E+01 0.268E+01   0.990E-14 -.268E-01 -.287E-01
   0.284E-11 0.736E+02 0.248E+02   0.255E-14 -.762E+02 -.263E+02   0.000E+00 0.259E+01 0.144E+01   0.156E-13 -.371E-02 -.126E-01
   0.285E-11 -.736E+02 -.248E+02   -.669E-14 0.762E+02 0.263E+02   0.000E+00 -.259E+01 -.144E+01   -.397E-14 0.371E-02 0.126E-01
   0.297E-11 0.240E+02 0.611E+01   -.653E-14 -.243E+02 -.673E+01   0.000E+00 0.381E+00 0.604E+00   0.127E-14 -.133E-01 0.468E-02
   0.296E-11 -.240E+02 -.611E+01   0.175E-13 0.243E+02 0.673E+01   0.000E+00 -.381E+00 -.604E+00   0.161E-13 0.133E-01 -.468E-02
   0.186E-10 -.467E-09 -.400E-09   0.503E-14 0.711E-14 0.000E+00   0.000E+00 -.139E-14 -.222E-15   0.867E-13 0.266E-12 0.547E-12

 POSITION                                       TOTAL-FORCE (eV/Angst)
      0.99934      7.33352      8.80806         0.000000      0.015256     -0.029003
      2.99802      5.92443      2.54648         0.000000     -0.015256      0.029003
      2.99802     11.76710      6.56138         0.000000      0.003448     -0.024473
      0.99934      1.49085      4.79315         0.000000     -0.003448      0.024473
      0.99934     12.63314      9.55966         0.000000      0.027196     -0.022267
      2.99802      0.62481      1.79487         0.000000     -0.027196      0.022267
      0.99934     11.07335      2.88601         0.000000      0.004951      0.010446
      2.99802      2.18460      8.46852         0.000000     -0.004951     -0.010446
      2.99802      9.72000     -0.72353         0.000000      0.002867     -0.012227
      0.99934      3.64581     -0.22228         0.000000     -0.002867      0.012227
      2.99802      8.26622      4.95683         0.000000     -0.004689      0.004308
      0.99934      4.99173      6.39770         0.000000      0.004689     -0.004308
      0.99934      6.39909      3.98983         0.000000     -0.009358      0.021213
      2.99802      6.85886      7.36470         0.000000      0.009358     -0.021213
      0.99934      8.06258     -1.21507         0.000000     -0.020164      0.011713
      2.99802      5.30323      0.26926         0.000000      0.020164     -0.011713
      2.99802     -0.19836      4.37850         0.000000      0.008008     -0.013333
      0.99934      0.09050      7.92184         0.000000     -0.008008      0.013333
      2.99802     10.79478      9.01821         0.000000      0.007962      0.023612
      0.99934      2.46317      2.33632         0.000000     -0.007962     -0.023612
      0.99934     10.16046      5.54383         0.000000     -0.018949     -0.000133
      2.99802      3.09749      5.81071         0.000000      0.018949      0.000133
      2.99802      9.25325      2.24408         0.000000      0.008876      0.005909
      0.99934      4.00470      9.11045         0.000000     -0.008876     -0.005909
      0.99934     11.95012      0.14443         0.000000      0.005805     -0.012479
      2.99802      1.30783     11.21010         0.000000     -0.005805      0.012479
    total drift:                                0.000000     -0.000000     -0.000000

  FREE ENERGIE OF THE ION-ELECTRON SYSTEM (eV)
  free  energy   TOTEN  =      -111.41238408 eV

  energy  without entropy=     -111.41238408  energy(sigma->0) =     -111.41238408

 d Force = 0.1102789E-02[ 0.854E-03, 0.135E-02]  d Energy = 0.1070641E-02 0.321E-04
 d Force =-0.4727007E+00[-0.475E+00,-0.470E+00]  d Ewald  =-0.5274184E+00 0.547E-01

 Conjugate gradient step on ions:
 trial-energy change:   -0.001071  1 .order   -0.001093   -0.001347   -0.000840
  (g-gl).g = 0.187E-03      g.g   = 0.237E-03  gl.gl    = 0.878E-03
 g(Force)  = 0.230E-03   g(Stress)= 0.672E-05 ortho     = 0.106E-04
 gamma     =   0.21271
 trial     =   5.63520
 opt step  =  14.97417  (harmonic =  14.97417) maximal distance =0.00922236
 next E    =  -111.413103   (d E  =  -0.00179)

 reached required accuracy - stopping structural energy minimisation

 total charge

# of ion       s       p       d       tot
    1        0.077   0.124   0.000   0.202
    2        0.077   0.124   0.000   0.202
    3        0.059   0.098   0.000   0.157
    4        0.059   0.098   0.000   0.157
    5        1.838   1.454   0.178   3.470
    6        1.838   1.454   0.178   3.470
    7        1.845   1.417   0.176   3.438
    8        1.845   1.417   0.176   3.438
    9        1.826   1.474   0.163   3.463
   10        1.826   1.474   0.163   3.463
   11        1.847   1.399   0.176   3.423
   12        1.847   1.399   0.176   3.423
   13        1.339   2.368   0.000   3.707
   14        1.339   2.368   0.000   3.707
   15        1.352   2.347   0.000   3.699
   16        1.352   2.347   0.000   3.699
   17        1.347   2.348   0.000   3.695
   18        1.347   2.348   0.000   3.695
   19        1.354   2.330   0.000   3.684
   20        1.354   2.330   0.000   3.684
   21        1.349   2.340   0.000   3.690
   22        1.349   2.340   0.000   3.690
   23        1.355   2.325   0.000   3.680
   24        1.355   2.325   0.000   3.680
   25        1.351   2.338   0.000   3.689
   26        1.351   2.338   0.000   3.689
tot         33.879  44.724   1.388  79.991