 vasp.5.4.4.18Apr17-6-g9f103f2a35 (build Oct 27 2022 13:04:57) complex

 executed on             LinuxIFC date 2024.06.30  03:18:25

 INCAR:
 POTCAR:    PAW_PBE K_pv 17Jan2003
 POTCAR:    PAW_PBE Sb 06Sep2000
 POTCAR:    PAW_PBE Se 06Sep2000

 POTCAR:    PAW_PBE K_pv 17Jan2003
   VRHFIN =K:  p6s1

   TITEL  = PAW_PBE K_pv 17Jan2003
   POMASS =   39.098; ZVAL   =    7.000    mass and valenz
   ENMAX  =  116.731; ENMIN  =   87.548 eV

 POTCAR:    PAW_PBE Sb 06Sep2000
   VRHFIN =Sb: s2p3

   TITEL  = PAW_PBE Sb 06Sep2000
   POMASS =  121.750; ZVAL   =    5.000    mass and valenz
   ENMAX  =  172.069; ENMIN  =  129.052 eV

 POTCAR:    PAW_PBE Se 06Sep2000
   VRHFIN =Se: s2p4

   TITEL  = PAW_PBE Se 06Sep2000
   POMASS =   78.960; ZVAL   =    6.000    mass and valenz
   ENMAX  =  211.555; ENMIN  =  158.666 eV

 Optimization of the real space projectors (new method)

 maximal supplied QI-value         = 12.09
 optimisation between [QCUT,QGAM] = [  8.83, 17.66] = [ 21.83, 87.31] Ry
 Optimized for a Real-space Cutoff    1.69 Angstroem

   l    n(q)    QCUT    max X(q) W(low)/X(q) W(high)/X(q)  e(spline)
   1      8     8.829    42.457    0.27E-03    0.59E-03    0.25E-06
   1      8     8.829    43.305    0.28E-03    0.61E-03    0.26E-06
   0      9     8.829    47.210    0.17E-02    0.12E-03    0.43E-06
   0      9     8.829    15.951    0.11E-02    0.76E-04    0.28E-06
   2      8     8.829     5.674    0.29E-03    0.69E-04    0.39E-07
 Optimization of the real space projectors (new method)

[...]

   l    n(q)    QCUT    max X(q) W(low)/X(q) W(high)/X(q)  e(spline)
   0      7     8.776    19.000    0.12E-02    0.42E-03    0.95E-07
   0      7     8.776     9.057    0.14E-02    0.54E-03    0.11E-06
   1      6     8.776   125.345    0.45E-03    0.22E-02    0.77E-07
   1      6     8.776    79.963    0.45E-03    0.21E-02    0.76E-07
   2      6     8.776     6.963    0.11E-02    0.51E-03    0.39E-07
 Optimization of the real space projectors (new method)

 maximal supplied QI-value         = 17.95
 optimisation between [QCUT,QGAM] = [  8.80, 17.59] = [ 21.67, 86.68] Ry
 Optimized for a Real-space Cutoff    1.19 Angstroem

   l    n(q)    QCUT    max X(q) W(low)/X(q) W(high)/X(q)  e(spline)
   0      6     8.797   133.320    0.14E-02    0.11E-02    0.95E-07
   0      6     8.797   111.601    0.15E-02    0.12E-02    0.10E-06
   1      6     8.797    47.222    0.19E-02    0.96E-03    0.11E-06
   1      6     8.797    33.775    0.19E-02    0.99E-03    0.11E-06
   2      5     8.797     3.720    0.16E-02    0.14E-02    0.40E-07
  PAW_PBE K_pv 17Jan2003                :
  PAW_PBE Sb 06Sep2000                  :
  PAW_PBE Se 06Sep2000                  :

 POSCAR: K4 Sb8 Se14
  positions in direct lattice
 exchange correlation table for  LEXCH =        8
   RHO(1)=    0.500       N(1)  =     2000
   RHO(2)=  100.500       N(2)  =     4000

 ion  position               nearest neighbor table
   1  0.267  0.331  0.112-  22 3.28  19 3.32  25 3.32  14 3.35  26 3.37  18 3.39   6 3.92   7 4.26
                             8 4.37   7 4.37  11 4.39   9 4.58  11 4.59  12 4.60   3 4.86   4 5.16
   2  0.423  0.734  0.559-  23 3.28  25 3.46  16 3.47  24 3.47  21 3.59  15 3.69  12 3.95  17 3.99
                             6 4.52   8 4.56   4 4.86   3 4.87   3 5.37
   3  0.577  0.266  0.441-  22 3.28  15 3.46  24 3.47  16 3.47  19 3.59  25 3.69   8 3.95  20 3.99
                            11 4.52  12 4.56   1 4.86   2 4.87   2 5.37
   4  0.733  0.669  0.888-  23 3.28  21 3.32  15 3.32  18 3.35  13 3.37  14 3.39  11 3.92   9 4.26
                            12 4.37   9 4.37   6 4.39   7 4.58   6 4.59   8 4.60   2 4.86   1 5.16
   5  0.028  0.944  0.341-  24 2.43  17 2.48  16 2.65  13 2.80  10 3.66
   6  0.163  0.436  0.816-  15 2.45  20 2.47  23 2.49  26 3.12   1 3.92   4 4.39   2 4.52   4 4.59

   7  0.729  0.137  0.047-  19 2.43  14 2.53  22 2.59  21 3.02  13 3.19   1 4.26   1 4.37   4 4.58

[...]

  13  0.800  0.872  0.155-  12 2.43   5 2.80  11 3.12   7 3.19   4 3.37
  14  0.643  0.328  0.951-   8 2.49   7 2.53   1 3.35   4 3.39
  15  0.449  0.434  0.713-   6 2.45   8 2.68   4 3.32   3 3.46   2 3.69
  16  0.222  0.012  0.529-  10 2.43   5 2.65   2 3.47   3 3.47
  17  0.022  0.688  0.352-  11 2.47   5 2.48   2 3.99
  18  0.357  0.672  0.049-  12 2.49   9 2.53   4 3.35   1 3.39
  19  0.452  0.067  0.157-   7 2.43  12 2.84   9 3.02   1 3.32   3 3.59
  20  0.978  0.312  0.648-   6 2.47  10 2.48   3 3.99
  21  0.548  0.933  0.843-   9 2.43   8 2.84   7 3.02   4 3.32   2 3.59
  22  0.865  0.324  0.223-  11 2.49   7 2.59   3 3.28   1 3.28
  23  0.135  0.676  0.777-   6 2.49   9 2.59   2 3.28   4 3.28
  24  0.778  0.988  0.471-   5 2.43  10 2.65   3 3.47   2 3.47
  25  0.551  0.566  0.287-  11 2.45  12 2.68   1 3.32   2 3.46   3 3.69
  26  0.200  0.128  0.845-   8 2.43  10 2.80   6 3.12   9 3.19   1 3.37

  LATTYP: Found a triclinic cell.
 ALAT       =    11.5363032875
 B/A-ratio  =     1.1618013854
 C/A-ratio  =     0.8349418055
 COS(alpha) =     0.0154679351
 COS(beta)  =     0.1688101302
 COS(gamma) =     0.8144125304

  Lattice vectors:

 A1 = (  -0.7003125900,  -1.9166631700, -11.3543937800)
 A2 = (   7.1003617100,  -1.9449910300, -11.1999740200)
 A3 = (  -2.1840605300,  -9.3810262700,   0.0662058600)

Analysis of symmetry for initial positions (statically):
 Subroutine PRICEL returns:
 Original cell was already a primitive cell.

 Routine SETGRP: Setting up the symmetry group for a
 triclinic supercell.

 Subroutine GETGRP returns: Found  2 space group operations
 (whereof  2 operations were pure point group operations)
 out of a pool of  2 trial point group operations.

The static configuration has the point symmetry S_2 .

Analysis of symmetry for dynamics (positions and initial velocities):
 Subroutine PRICEL returns:
 Original cell was already a primitive cell.

 Routine SETGRP: Setting up the symmetry group for a
 triclinic supercell.

 Subroutine GETGRP returns: Found  2 space group operations
 (whereof  2 operations were pure point group operations)
 out of a pool of  2 trial point group operations.

The dynamic configuration has the point symmetry S_2 .

 Subroutine INISYM returns: Found  2 space group operations
 (whereof  2 operations are pure point group operations),
 and found     1 'primitive' translations

 KPOINTS: pymatgen with grid density = 807 / numbe

Automatic generation of k-mesh.
Space group operators:
 irot       det(A)        alpha          n_x          n_y          n_z        tau_x        tau_y        tau_z
    1     1.000000     0.000001     1.000000     0.000000     0.000000     0.000000     0.000000     0.000000
    2    -1.000000     0.000001     1.000000     0.000000     0.000000     0.000000     0.000000     0.000000

 Subroutine IBZKPT returns following result:

 Found      6 irreducible k-points:

 Following reciprocal coordinates:
            Coordinates               Weight
  0.000000  0.250000  0.250000      2.000000
  0.333333  0.250000  0.250000      2.000000
 -0.333333  0.250000  0.250000      2.000000
  0.000000 -0.250000  0.250000      2.000000
  0.333333 -0.250000  0.250000      2.000000
 -0.333333 -0.250000  0.250000      2.000000

 Following cartesian coordinates:
            Coordinates               Weight
  0.000620  0.026318 -0.026499      2.000000
 -0.042094  0.036269 -0.025544      2.000000
  0.043334  0.016367 -0.027453      2.000000
  0.000249 -0.026831 -0.017504      2.000000
 -0.042465 -0.016880 -0.016549      2.000000
  0.042963 -0.036782 -0.018459      2.000000

 SYSTEM =  CIS
 POSCAR =  K4 Sb8 Se14

 Startparameter for this run:
   NWRITE =      2    write-flag & timer
   PREC   = medium    normal or accurate (medium, high low for compatibility)
   ISTART =      0    job   : 0-new  1-cont  2-samecut
   ICHARG =      2    charge: 1-file 2-atom 10-const
   ISPIN  =      1    spin polarized calculation?
   LNONCOLLINEAR =      F non collinear calculations
   LSORBIT =      F    spin-orbit coupling
   INIWAV =      1    electr: 0-lowe 1-rand  2-diag
   LASPH  =      T    aspherical Exc in radial PAW
   METAGGA=      F    non-selfconsistent MetaGGA calc.

 Electronic Relaxation 1
   ENCUT  =  300.0 eV  22.05 Ry    4.70 a.u.  11.02 13.60 16.29*2*pi/ulx,y,z
   ENINI  =  300.0     initial cutoff
   ENAUG  =  446.8 eV  augmentation charge cutoff
   NELM   =     60;   NELMIN=  2; NELMDL= -5     # of ELM steps
   EDIFF  = 0.1E-03   stopping-criterion for ELM
   LREAL  =      T    real-space projection
   NLSPLINE    = F    spline interpolate recip. space projectors
   LCOMPAT=      F    compatible to vasp.4.4
   GGA_COMPAT  = T    GGA compatible to vasp.4.4-vasp.4.6
   LMAXPAW     = -100 max onsite density
   LMAXMIX     =    4 max onsite mixed and CHGCAR
   VOSKOWN=      0    Vosko Wilk Nusair interpolation
   ROPT   =   -0.00200  -0.00200  -0.00200
 Ionic relaxation
   EDIFFG = -.5E-01   stopping-criterion for IOM
   NSW    =     99    number of steps for IOM
   NBLOCK =      1;   KBLOCK =     99    inner block; outer block
   IBRION =      2    ionic relax: 0-MD 1-quasi-New 2-CG
   NFREE  =      1    steps in history (QN), initial steepest desc. (CG)
   ISIF   =      3    stress and relaxation
   IWAVPR =     11    prediction:  0-non 1-charg 2-wave 3-comb
   ISYM   =      2    0-nonsym 1-usesym 2-fastsym
   LCORR  =      T    Harris-Foulkes like correction to forces

   POTIM  = 0.1000    time-step for ionic-motion
   TEIN   =    0.0    initial temperature
   TEBEG  =    0.0;   TEEND  =   0.0 temperature during run
   SMASS  =  -3.00    Nose mass-parameter (am)
   estimated Nose-frequenzy (Omega)   =  0.10E-29 period in steps =****** mass=  -0.139E-26a.u.
   SCALEE = 1.0000    scale energy and forces
   NPACO  =    256;   APACO  = 16.0  distance and # of slots for P.C.
   PSTRESS=    0.0 pullay stress

  Mass of Ions in am
   POMASS =  39.10121.75 78.96
  Ionic Valenz
   ZVAL   =   7.00  5.00  6.00
  Atomic Wigner-Seitz radii
  virtual crystal weights
   VCA    =   1.00  1.00  1.00
   NELECT =     152.0000    total number of electrons
   NUPDOWN=      -1.0000    fix difference up-down

 DOS related values:
   EMIN   =  10.00;   EMAX   =-10.00  energy-range for DOS
   EFERMI =   0.00
   ISMEAR =     0;   SIGMA  =   0.05  broadening in eV -4-tet -1-fermi 0-gaus

 Electronic relaxation 2 (details)
   IALGO  =     38    algorithm
   LDIAG  =      T    sub-space diagonalisation (order eigenvalues)
   LSUBROT=      F    optimize rotation matrix (better conditioning)
   TURBO    =      0    0=normal 1=particle mesh
   IRESTART =      0    0=no restart 2=restart with 2 vectors
   NREBOOT  =      0    no. of reboots
   NMIN     =      0    reboot dimension
   EREF     =   0.00    reference energy to select bands
   IMIX   =      4    mixing-type and parameters
     AMIX     =   0.40;   BMIX     =  1.00
     AMIX_MAG =   1.60;   BMIX_MAG =  1.00
     AMIN     =   0.10
     WC   =   100.;   INIMIX=   1;  MIXPRE=   1;  MAXMIX= -45

 Intra band minimization:
   WEIMIN = 0.0010     energy-eigenvalue tresh-hold
   EBREAK =  0.26E-06  absolut break condition
   DEPER  =   0.30     relativ break condition

   TIME   =   0.40     timestep for ELM

[...]

[...]

 d Force = 0.3253159E-04[ 0.188E-04, 0.463E-04]  d Energy =-0.2962492E-04 0.622E-04
 d Force =-0.4421262E-01[-0.442E-01,-0.442E-01]  d Ewald  = 0.2832163E+00-0.327E+00

[...]

 d Force = 0.1705623E-04[-0.799E-04, 0.114E-03]  d Energy =-0.5141148E-04 0.685E-04
 d Force = 0.3831205E-01[ 0.382E-01, 0.384E-01]  d Ewald  = 0.2710090E+00-0.233E+00

[...]

 d Force = 0.2229871E-04[ 0.166E-05, 0.429E-04]  d Energy = 0.4404961E-04-0.218E-04
 d Force =-0.2055907E-01[-0.206E-01,-0.205E-01]  d Ewald  =-0.1455922E+00 0.125E+00

[...]

 d Force = 0.2861744E-04[-0.499E-04, 0.107E-03]  d Energy = 0.2732361E-04 0.129E-05
 d Force =-0.8658696E-02[-0.868E-02,-0.864E-02]  d Ewald  = 0.5784722E-01-0.665E-01

[...]

 d Force = 0.5030175E-05[-0.855E-05, 0.186E-04]  d Energy =-0.5047832E-06 0.553E-05
 d Force = 0.3233382E-02[ 0.323E-02, 0.324E-02]  d Ewald  =-0.2156370E-01 0.248E-01

[...]

 Conjugate gradient step on ions:
 trial-energy change:   -0.000072  1 .order   -0.000096   -0.000131   -0.000060
  (g-gl).g = 0.497E-03      g.g   = 0.444E-03  gl.gl    = 0.456E-03
 g(Force)  = 0.403E-03   g(Stress)= 0.408E-04 ortho     =-0.290E-04
 gamma     =   1.08828
 trial     =   0.31853
 opt step  =   0.58566  (harmonic =   0.58566) maximal distance =0.00054595
 next E    =  -100.346496   (d E  =  -0.00012)

[...]

 d Force = 0.1828790E-04[-0.452E-05, 0.411E-04]  d Energy = 0.1982798E-04-0.154E-05
 d Force = 0.2610797E-01[ 0.261E-01, 0.261E-01]  d Ewald  =-0.4087493E-01 0.670E-01

[...]

 d Force = 0.7171344E-05[-0.834E-04, 0.978E-04]  d Energy =-0.1042994E-03 0.111E-03
 d Force = 0.2342307E+00[ 0.234E+00, 0.235E+00]  d Ewald  =-0.3495174E+00 0.584E+00

[...]

 d Force = 0.2205334E-04[ 0.219E-04, 0.222E-04]  d Energy = 0.4943014E-04-0.274E-04
 d Force =-0.7286892E-01[-0.729E-01,-0.728E-01]  d Ewald  = 0.1087199E+00-0.182E+00

[...]

 d Force =-0.3334467E-05[-0.156E-04, 0.893E-05]  d Energy =-0.1211690E-05-0.212E-05
 d Force =-0.2970977E-01[-0.297E-01,-0.297E-01]  d Ewald  = 0.4428938E-01-0.740E-01

[...]

 d Force = 0.3938603E-04[ 0.115E-04, 0.672E-04]  d Energy = 0.5655673E-04-0.172E-04
 d Force = 0.5424140E-01[ 0.542E-01, 0.543E-01]  d Ewald  =-0.5929073E-01 0.114E+00

[...]

 eigenvalue-minimisations  :   672
 total energy-change (2. order) : 0.6522514E-06  (-0.2043245E-05)
 number of electron     152.0000123 magnetization
 augmentation part       -7.3159465 magnetization

[...]

 Conjugate gradient step on ions:
 trial-energy change:   -0.000126  1 .order   -0.000128   -0.000157   -0.000099
  (g-gl).g = 0.235E-03      g.g   = 0.432E-03  gl.gl    = 0.661E-03
 g(Force)  = 0.410E-03   g(Stress)= 0.221E-04 ortho     = 0.830E-05
 gamma     =   0.35639
 trial     =   0.36080
 opt step  =   0.97407  (harmonic =   0.97407) maximal distance =0.00088159
 next E    =  -100.347411   (d E  =  -0.00021)

[...]

 Broyden mixing:
  rms(total) = 0.15776E-02    rms(broyden)= 0.15773E-02
  rms(prec ) = 0.18909E-02
  weight for this iteration     100.00

[...]

--------------------------------------- Iteration     90(   2)  ---------------------------------------

 eigenvalue-minimisations  :   630
 total energy-change (2. order) :-0.3812708E-05  (-0.9499926E-05)
 number of electron     152.0000124 magnetization
 augmentation part       -7.3155649 magnetization

 Free energy of the ion-electron system (eV)
  alpha Z        PSCENC =       246.54447944
  Ewald energy   TEWEN  =     -5194.22555106
  -Hartree energ DENC   =     -1328.90193083
  -exchange      EXHF   =         0.00000000
  -V(xc)+E(xc)   XCENC  =      -330.18554983
  PAW double counting   =      8233.28609686    -7595.79741659
  entropy T*S    EENTRO =        -0.00000000
  eigenvalues    EBANDS =      -732.33124783
  atomic energy  EATOM  =      6601.26369155
  Solvation  Ediel_sol  =         0.00000000
  free energy    TOTEN  =      -100.34742830 eV

  energy without entropy =     -100.34742830  energy(sigma->0) =     -100.34742830

 average (electrostatic) potential at core
  the test charge radii are     1.3383  1.1712  1.0808
  (the norm of the test charge is              1.0000)
       1 -12.0408       2 -12.4322       3 -12.4322       4 -12.0408       5 -91.4352
       6 -91.3685       7 -91.3809       8 -91.4666       9 -91.3809      10 -91.4352
      11 -91.3685      12 -91.4666      13 -56.0034      14 -56.1549      15 -55.8814
      16 -55.9805      17 -56.2164      18 -56.1549      19 -55.9281      20 -56.2164
      21 -55.9281      22 -55.8806      23 -55.8806      24 -55.9805      25 -55.8814
      26 -56.0034

 E-fermi :   1.5960     XC(G=0):  -7.8718     alpha+bet : -7.2387

[...]

 k-point     6 :      -0.3333   -0.2500    0.2500
  band No.  band energies     occupation
      1     -11.9278      2.00000
      2     -11.8963      2.00000
      3     -11.8880      2.00000
      4     -11.8805      2.00000
      5     -11.8664      2.00000
      6     -11.8531      2.00000
      7     -11.7398      2.00000
      8     -11.6630      2.00000
      9     -11.6352      2.00000
     10     -11.5659      2.00000
     11     -11.5431      2.00000
     12     -11.5304      2.00000
     13     -11.5107      2.00000
     14     -11.3541      2.00000
     15     -11.2838      2.00000
     16     -11.1000      2.00000
     17     -10.9826      2.00000
     18     -10.8009      2.00000
     19     -10.6084      2.00000
     20     -10.5359      2.00000
     21     -10.4763      2.00000
     22     -10.4457      2.00000
     23     -10.3333      2.00000
     24     -10.3170      2.00000
     25     -10.2210      2.00000
     26     -10.2033      2.00000
     27      -7.3935      2.00000
     28      -7.1811      2.00000
     29      -7.0246      2.00000
     30      -6.9756      2.00000
     31      -6.5465      2.00000
     32      -6.3570      2.00000
     33      -6.1956      2.00000
     34      -5.8919      2.00000
     35      -2.8016      2.00000
     36      -2.6243      2.00000
     37      -2.3831      2.00000
     38      -2.3298      2.00000
     39      -2.1754      2.00000
     40      -2.1148      2.00000
     41      -1.9974      2.00000
     42      -1.8898      2.00000
     43      -1.7731      2.00000
     44      -1.6480      2.00000
     45      -1.5544      2.00000
     46      -1.2854      2.00000
     47      -1.2367      2.00000
     48      -1.1247      2.00000
     49      -1.0086      2.00000
     50      -0.9278      2.00000
     51      -0.9168      2.00000
     52      -0.8063      2.00000
     53      -0.7608      2.00000
     54      -0.6735      2.00000
     55      -0.6272      2.00000
     56      -0.4751      2.00000
     57      -0.4054      2.00000
     58      -0.1581      2.00000
     59       0.0316      2.00000
     60       0.1744      2.00000
[...]
     84       3.8464      0.00000
     85       3.9980      0.00000
     86       4.0701      0.00000
     87       4.2438      0.00000
     88       4.3946      0.00000
     89       4.4764      0.00000
     90       4.5510      0.00000
     91       4.6742      0.00000
     92       4.7967      0.00000
     93       4.9497      0.00000
     94       5.0589      0.00000
     95       5.2033      0.00000
     96       5.2330      0.00000
     97       5.3695      0.00000
     98       5.4317      0.00000

 soft charge-density along one line, spin component           1
         0         1         2         3         4         5         6         7         8         9
 total charge-density along one line

------------------------ aborting loop because EDIFF is reached ----------------------------------------

[...]

  FORCE on cell =-STRESS in cart. coord.  units (eV):
  Direction    XX          YY          ZZ          XY          YZ          ZX
  Alpha Z   246.54448   246.54448   246.54448
  Ewald   -1676.83833 -1633.31695 -1884.08894    47.50955  -180.43334   100.27364
  Hartree   479.82978   511.21839   337.75882    32.63932  -126.09419    47.78432
  E(xc)    -575.41306  -574.30711  -575.32478     0.22133    -0.38458     1.35259
  Local    -841.75664  -915.29483  -502.81221   -77.97579   304.23829  -136.91070
  n-local  1151.29733  1143.27507  1149.27752    -1.43114     1.77595    -8.95079
  augment  -170.84533  -170.04816  -172.38862     0.29869    -0.63080     1.97979
  Kinetic  1386.99416  1391.86390  1400.72211    -1.26272     1.46610    -5.50227
  Fock        0.00000     0.00000     0.00000     0.00000     0.00000     0.00000
  Total      -0.18761    -0.06520    -0.31163    -0.00076    -0.06256     0.02658
  in kB      -0.33091    -0.11500    -0.54966    -0.00134    -0.11035     0.04689

 VOLUME and BASIS-vectors are now :
  energy-cutoff  :      300.00
  volume of cell :      908.36
      direct lattice vectors                 reciprocal lattice vectors
    -7.838437659 -0.015886486 -0.310190063    -0.127835226  0.029228994  0.005042410
     2.246234822  9.829517252 -0.031525229     0.000477935  0.101569761 -0.017279248
    -0.923995014 -2.004286063-11.807022103     0.003357167 -0.001039090 -0.084781697

  length of vectors
     7.844588912 10.082954633 12.011523648     0.131231113  0.103030176  0.084854502

 FORCES acting on ions
    electron-ion (+dipol)            ewald-force                    non-local-force                 convergence-correction
   -.336E+02 0.140E+02 0.480E+02   0.332E+02 -.139E+02 -.481E+02   0.441E+00 -.552E-01 0.530E-01   -.165E-02 -.474E-03 0.299E-02
   0.547E+01 0.367E+02 -.199E+02   -.519E+01 -.361E+02 0.194E+02   -.287E+00 -.549E+00 0.461E+00   0.204E-02 0.138E-02 0.221E-02
   -.547E+01 -.367E+02 0.199E+02   0.519E+01 0.361E+02 -.194E+02   0.287E+00 0.549E+00 -.461E+00   -.204E-02 -.138E-02 -.221E-02
   0.336E+02 -.140E+02 -.480E+02   -.332E+02 0.139E+02 0.481E+02   -.441E+00 0.552E-01 -.530E-01   0.165E-02 0.474E-03 -.299E-02
   0.101E+02 -.336E+02 -.588E+01   -.143E+02 0.409E+02 0.121E+02   0.415E+01 -.730E+01 -.627E+01   0.204E-02 -.136E-02 0.576E-03
   -.192E+02 0.261E+00 0.521E+01   0.205E+02 -.350E+01 -.152E+02   -.136E+01 0.325E+01 0.100E+02   -.107E-02 -.125E-02 -.106E-02
   0.426E+02 0.477E+01 -.379E+01   -.504E+02 -.900E+01 0.808E+01   0.781E+01 0.423E+01 -.431E+01   0.142E-02 0.251E-03 -.343E-04
   0.189E+02 0.204E+01 -.459E+02   -.235E+02 -.440E+01 0.544E+02   0.455E+01 0.237E+01 -.848E+01   0.137E-02 0.382E-04 -.213E-02
   -.426E+02 -.477E+01 0.379E+01   0.504E+02 0.900E+01 -.808E+01   -.781E+01 -.423E+01 0.431E+01   -.142E-02 -.251E-03 0.343E-04
   -.101E+02 0.336E+02 0.588E+01   0.143E+02 -.409E+02 -.121E+02   -.415E+01 0.730E+01 0.627E+01   -.204E-02 0.136E-02 -.576E-03
   0.192E+02 -.261E+00 -.521E+01   -.205E+02 0.350E+01 0.152E+02   0.136E+01 -.325E+01 -.100E+02   0.107E-02 0.125E-02 0.106E-02
   -.189E+02 -.204E+01 0.459E+02   0.235E+02 0.440E+01 -.544E+02   -.455E+01 -.237E+01 0.848E+01   -.137E-02 -.382E-04 0.213E-02
   0.426E+02 -.309E+02 -.103E+02   -.441E+02 0.317E+02 0.118E+02   0.148E+01 -.810E+00 -.146E+01   0.771E-03 -.299E-03 -.985E-03
   0.277E+02 -.326E+02 -.372E+01   -.276E+02 0.350E+02 0.310E+01   -.124E+00 -.240E+01 0.643E+00   0.605E-02 -.278E-02 -.154E-02
   0.296E+02 -.389E+02 -.705E+02   -.309E+02 0.402E+02 0.717E+02   0.124E+01 -.133E+01 -.116E+01   -.104E-02 -.429E-02 -.246E-02
   0.262E+02 0.380E+01 -.673E+01   -.284E+02 -.386E+01 0.697E+01   0.227E+01 0.681E-01 -.236E+00   0.185E-02 -.842E-03 -.309E-02
   0.243E+02 0.547E+02 0.698E+02   -.256E+02 -.559E+02 -.719E+02   0.123E+01 0.123E+01 0.212E+01   -.528E-03 0.616E-03 0.232E-02
   -.277E+02 0.326E+02 0.372E+01   0.276E+02 -.350E+02 -.310E+01   0.124E+00 0.240E+01 -.643E+00   -.605E-02 0.278E-02 0.154E-02
   -.437E+02 -.711E+01 0.512E+02   0.454E+02 0.744E+01 -.524E+02   -.170E+01 -.323E+00 0.120E+01   -.466E-02 -.860E-03 0.307E-02
   -.243E+02 -.547E+02 -.698E+02   0.256E+02 0.559E+02 0.719E+02   -.123E+01 -.123E+01 -.212E+01   0.528E-03 -.616E-03 -.232E-02
   0.437E+02 0.711E+01 -.512E+02   -.454E+02 -.744E+01 0.524E+02   0.170E+01 0.323E+00 -.120E+01   0.466E-02 0.860E-03 -.307E-02
   0.423E+02 0.155E+02 0.631E+02   -.436E+02 -.165E+02 -.649E+02   0.128E+01 0.103E+01 0.186E+01   -.773E-03 -.157E-03 0.360E-02
   -.423E+02 -.155E+02 -.631E+02   0.436E+02 0.165E+02 0.649E+02   -.128E+01 -.103E+01 -.186E+01   0.773E-03 0.157E-03 -.360E-02
   -.262E+02 -.380E+01 0.673E+01   0.284E+02 0.386E+01 -.697E+01   -.227E+01 -.681E-01 0.236E+00   -.185E-02 0.842E-03 0.309E-02
   -.296E+02 0.389E+02 0.705E+02   0.309E+02 -.402E+02 -.717E+02   -.124E+01 0.133E+01 0.116E+01   0.104E-02 0.429E-02 0.246E-02
   -.426E+02 0.309E+02 0.103E+02   0.441E+02 -.317E+02 -.118E+02   -.148E+01 0.810E+00 0.146E+01   -.771E-03 0.299E-03 0.985E-03
   0.313E-11 0.940E-11 0.144E-10   -.924E-13 0.355E-13 0.107E-13   0.444E-15 -.333E-15 -.444E-15   -.935E-12 -.218E-11 -.505E-11

 POSITION                                       TOTAL-FORCE (eV/Angst)
     -1.56657      3.06157     -1.41812        -0.003885      0.007651      0.005312
     -2.24880      6.08467     -6.83719        -0.012925      0.000762     -0.013710
     -4.26740      1.72468     -5.31155         0.012925     -0.000762      0.013710
     -4.94963      4.74777    -10.73062         0.003885     -0.007651     -0.005312
      1.55447      8.59011     -4.06771        -0.000431      0.005067     -0.026274
     -0.99956      2.64143     -9.69616         0.021789      0.013424      0.018732
     -5.46383      1.22002     -0.79555        -0.042431      0.008821     -0.023824
     -4.27629      0.31678     -9.25429        -0.004550      0.009657     -0.017537
     -1.05236      6.58933    -11.35319         0.042431     -0.008821      0.023824
     -8.07067     -0.78077     -8.08102         0.000431     -0.005067      0.026274
     -5.51664      5.16792     -2.45258        -0.021789     -0.013424     -0.018732
     -2.23990      7.49257     -2.89444         0.004550     -0.009657      0.017537
     -4.56901      8.23582     -1.96547         0.002341     -0.011055     -0.006469
     -5.30570      1.40396    -11.45876        -0.031490      0.011494      0.021239
     -3.31364      2.87591     -8.48851        -0.001660     -0.012370     -0.001657
     -2.35944     -0.95475     -6.28161         0.007523      0.003977     -0.001987
      0.95970      6.03705     -4.23847         0.001386      0.001428      0.003427
     -1.21050      6.40538     -0.68998         0.031490     -0.011494     -0.021239
     -3.36381      0.33083     -2.06202         0.006185      0.006175      0.001811
     -7.47589      1.77230     -7.91027        -0.001386     -0.001428     -0.003427
     -3.15238      7.47852    -10.08672        -0.006185     -0.006175     -0.001811
     -6.37818      2.68654     -2.94497         0.008156     -0.012991     -0.006158
     -0.13801      5.12280     -9.20377        -0.008156      0.012991      0.006158
     -4.15676      8.76409     -5.86712        -0.007523     -0.003977      0.001987
     -3.20256      4.93343     -3.66023         0.001660      0.012370      0.001657
     -1.94719     -0.42647    -10.18327        -0.002341      0.011055      0.006469
    total drift:                                0.000000      0.000000      0.000000

  FREE ENERGIE OF THE ION-ELECTRON SYSTEM (eV)
  free  energy   TOTEN  =      -100.34742830 eV

  energy  without entropy=     -100.34742830  energy(sigma->0) =     -100.34742830

 d Force = 0.8456819E-04[ 0.186E-04, 0.151E-03]  d Energy = 0.1021804E-03-0.176E-04
 d Force = 0.2631579E-01[ 0.263E-01, 0.264E-01]  d Ewald  = 0.1508794E+00-0.125E+00

 reached required accuracy - stopping structural energy minimisation

 total charge

# of ion       s       p       d       tot
    1        0.078   6.079   0.070   6.228
    2        0.058   6.033   0.049   6.140
    3        0.058   6.033   0.049   6.140
    4        0.078   6.079   0.070   6.228
    5        1.262   0.982   0.057   2.300
    6        1.256   0.996   0.056   2.308
    7        1.280   0.954   0.055   2.289
    8        1.273   0.957   0.055   2.286
    9        1.280   0.954   0.055   2.289
   10        1.262   0.982   0.057   2.300
   11        1.256   0.996   0.056   2.308
   12        1.273   0.957   0.055   2.286
   13        1.474   2.306   0.020   3.800
   14        1.471   2.322   0.022   3.815
   15        1.465   2.334   0.017   3.816
   16        1.469   2.323   0.020   3.811
   17        1.481   2.288   0.024   3.793
   18        1.471   2.322   0.022   3.815
   19        1.471   2.321   0.020   3.812
   20        1.481   2.288   0.024   3.793
   21        1.471   2.321   0.020   3.812
   22        1.468   2.330   0.018   3.816
   23        1.468   2.330   0.018   3.816
   24        1.469   2.323   0.020   3.811
   25        1.465   2.334   0.017   3.816
   26        1.474   2.306   0.020   3.800
tot         31.010  64.451   0.965  96.426