 vasp.5.4.4.18Apr17-6-g9f103f2a35 (build Oct 27 2022 13:04:57) complex

 executed on             LinuxIFC date 2024.06.30  03:14:24

 INCAR:
 POTCAR:    PAW_PBE K_pv 17Jan2003
 POTCAR:    PAW_PBE Sb 06Sep2000
 POTCAR:    PAW_PBE Se 06Sep2000

 POTCAR:    PAW_PBE K_pv 17Jan2003
   VRHFIN =K:  p6s1

   TITEL  = PAW_PBE K_pv 17Jan2003
   POMASS =   39.098; ZVAL   =    7.000    mass and valenz
   ENMAX  =  116.731; ENMIN  =   87.548 eV

 POTCAR:    PAW_PBE Sb 06Sep2000
   VRHFIN =Sb: s2p3

   TITEL  = PAW_PBE Sb 06Sep2000
   POMASS =  121.750; ZVAL   =    5.000    mass and valenz
   ENMAX  =  172.069; ENMIN  =  129.052 eV

 POTCAR:    PAW_PBE Se 06Sep2000
   VRHFIN =Se: s2p4

   TITEL  = PAW_PBE Se 06Sep2000
   POMASS =   78.960; ZVAL   =    6.000    mass and valenz
   ENMAX  =  211.555; ENMIN  =  158.666 eV

 Optimization of the real space projectors (new method)

 maximal supplied QI-value         = 12.09
 optimisation between [QCUT,QGAM] = [  8.83, 17.66] = [ 21.83, 87.31] Ry
 Optimized for a Real-space Cutoff    1.69 Angstroem

   l    n(q)    QCUT    max X(q) W(low)/X(q) W(high)/X(q)  e(spline)
   1      8     8.829    42.457    0.27E-03    0.59E-03    0.25E-06
   1      8     8.829    43.305    0.28E-03    0.61E-03    0.26E-06
   0      9     8.829    47.210    0.17E-02    0.12E-03    0.43E-06
   0      9     8.829    15.951    0.11E-02    0.76E-04    0.28E-06
   2      8     8.829     5.674    0.29E-03    0.69E-04    0.39E-07
 Optimization of the real space projectors (new method)

[...]

   l    n(q)    QCUT    max X(q) W(low)/X(q) W(high)/X(q)  e(spline)
   0      7     8.776    19.000    0.12E-02    0.42E-03    0.95E-07
   0      7     8.776     9.057    0.14E-02    0.54E-03    0.11E-06
   1      6     8.776   125.345    0.45E-03    0.22E-02    0.77E-07
   1      6     8.776    79.963    0.45E-03    0.21E-02    0.76E-07
   2      6     8.776     6.963    0.11E-02    0.51E-03    0.39E-07
 Optimization of the real space projectors (new method)

 maximal supplied QI-value         = 17.95
 optimisation between [QCUT,QGAM] = [  8.80, 17.59] = [ 21.67, 86.68] Ry
 Optimized for a Real-space Cutoff    1.19 Angstroem

   l    n(q)    QCUT    max X(q) W(low)/X(q) W(high)/X(q)  e(spline)
   0      6     8.797   133.320    0.14E-02    0.11E-02    0.95E-07
   0      6     8.797   111.601    0.15E-02    0.12E-02    0.10E-06
   1      6     8.797    47.222    0.19E-02    0.96E-03    0.11E-06
   1      6     8.797    33.775    0.19E-02    0.99E-03    0.11E-06
   2      5     8.797     3.720    0.16E-02    0.14E-02    0.40E-07
  PAW_PBE K_pv 17Jan2003                :
  PAW_PBE Sb 06Sep2000                  :
  PAW_PBE Se 06Sep2000                  :

 POSCAR: K4 Sb4 Se8
  positions in direct lattice
 exchange correlation table for  LEXCH =        8
   RHO(1)=    0.500       N(1)  =     2000
   RHO(2)=  100.500       N(2)  =     4000

 ion  position               nearest neighbor table
   1  0.565  0.328  0.153-  13 3.47  12 3.48  15 3.53  15 3.54  11 3.62   9 3.65  13 3.70   7 3.98
                             6 4.17   5 4.22   7 4.49   4 4.61   3 4.90   4 5.03   3 5.18   2 5.41
   2  0.894  0.716  0.580-  14 3.40  10 3.44  14 3.48  16 3.50   9 3.62  12 3.68  10 3.78   8 3.96
                             4 4.02   5 4.21   8 4.32   3 4.61   4 4.66   3 5.03   4 5.24   1 5.41
   3  0.435  0.672  0.847-  11 3.47  14 3.48  16 3.53  16 3.54  13 3.62  10 3.65  11 3.70   6 3.98
                             7 4.17   8 4.22   6 4.49   2 4.61   1 4.90   2 5.03   1 5.18   4 5.41
   4  0.106  0.284  0.420-  12 3.40   9 3.44  12 3.48  15 3.50  10 3.62  14 3.68   9 3.78   5 3.96
                             2 4.02   8 4.21   5 4.32   1 4.61   2 4.66   1 5.03   2 5.24   3 5.41
   5  0.410  0.806  0.348-  12 2.55   9 2.57  13 2.80  14 3.10   4 3.96   2 4.21   1 4.22   4 4.32

   6  0.012  0.216  0.915-  16 2.57  11 2.58  15 2.84  10 2.97   3 3.98   1 4.17   3 4.49
   7  0.988  0.784  0.085-  15 2.57  13 2.58  16 2.84   9 2.97   1 3.98   3 4.17   1 4.49
   8  0.590  0.194  0.652-  14 2.55  10 2.57  11 2.80  12 3.10   2 3.96   4 4.21   3 4.22   2 4.32

   9  0.014  0.757  0.318-   5 2.57   7 2.97   4 3.44   2 3.62   1 3.65   4 3.78
  10  0.986  0.243  0.682-   8 2.57   6 2.97   2 3.44   4 3.62   3 3.65   2 3.78
  11  0.623  0.210  0.876-   6 2.58   8 2.80   3 3.47   1 3.62   3 3.70
  12  0.576  0.202  0.408-   5 2.55   8 3.10   4 3.40   4 3.48   1 3.48   2 3.68
  13  0.377  0.790  0.124-   7 2.58   5 2.80   1 3.47   3 3.62   1 3.70
  14  0.424  0.798  0.592-   8 2.55   5 3.10   2 3.40   2 3.48   3 3.48   4 3.68
  15  0.021  0.176  0.134-   7 2.57   6 2.84   4 3.50   1 3.53   1 3.54
  16  0.979  0.824  0.866-   6 2.57   7 2.84   2 3.50   3 3.53   3 3.54

  LATTYP: Found a triclinic cell.
 ALAT       =     6.7542731366
 B/A-ratio  =     1.2288700634
 C/A-ratio  =     1.9891892860
 COS(alpha) =     0.0331239032
 COS(beta)  =     0.3516341537
 COS(gamma) =     0.6087158828

  Lattice vectors:

 A1 = (   1.7032276300,  -6.5359932400,  -0.0036892600)
 A2 = (  -5.0983349500,  -6.5497324300,  -0.0067236600)
 A3 = (   4.1615526200,  -3.7908156300, -12.1993689500)

Analysis of symmetry for initial positions (statically):
 Subroutine PRICEL returns:
 Original cell was already a primitive cell.

 Routine SETGRP: Setting up the symmetry group for a
 triclinic supercell.

 Subroutine GETGRP returns: Found  2 space group operations
 (whereof  2 operations were pure point group operations)
 out of a pool of  2 trial point group operations.

The static configuration has the point symmetry S_2 .

Analysis of symmetry for dynamics (positions and initial velocities):
 Subroutine PRICEL returns:
 Original cell was already a primitive cell.

 Routine SETGRP: Setting up the symmetry group for a
 triclinic supercell.

 Subroutine GETGRP returns: Found  2 space group operations
 (whereof  2 operations were pure point group operations)
 out of a pool of  2 trial point group operations.

The dynamic configuration has the point symmetry S_2 .

 Subroutine INISYM returns: Found  2 space group operations
 (whereof  2 operations are pure point group operations),
 and found     1 'primitive' translations

 KPOINTS: pymatgen with grid density = 807 / numbe

Automatic generation of k-mesh.
Space group operators:
 irot       det(A)        alpha          n_x          n_y          n_z        tau_x        tau_y        tau_z
    1     1.000000     0.000000     1.000000     0.000000     0.000000     0.000000     0.000000     0.000000
    2    -1.000000     0.000000     1.000000     0.000000     0.000000     0.000000     0.000000     0.000000

 Subroutine IBZKPT returns following result:

 Found      9 irreducible k-points:

 Following reciprocal coordinates:
            Coordinates               Weight
  0.000000 -0.000000  0.250000      2.000000
  0.333333  0.000000  0.250000      2.000000
 -0.333333 -0.000000  0.250000      2.000000
  0.000000  0.333333  0.250000      2.000000
  0.333333  0.333333  0.250000      2.000000
 -0.333333  0.333333  0.250000      2.000000
 -0.000000 -0.333333  0.250000      2.000000
  0.333333 -0.333333  0.250000      2.000000
 -0.333333 -0.333333  0.250000      2.000000

 Following cartesian coordinates:
            Coordinates               Weight
 -0.000009 -0.000014  0.020494      2.000000
  0.048968  0.012742  0.033238      2.000000
 -0.048986 -0.012770  0.007750      2.000000
 -0.000117  0.050951  0.031944      2.000000
  0.048860  0.063707  0.044688      2.000000
 -0.049094  0.038195  0.019201      2.000000
  0.000099 -0.050979  0.009044      2.000000
  0.049076 -0.038223  0.021788      2.000000
 -0.048878 -0.063735 -0.003700      2.000000

 SYSTEM =  CIS
 POSCAR =  K4 Sb4 Se8

 Startparameter for this run:
   NWRITE =      2    write-flag & timer
   PREC   = medium    normal or accurate (medium, high low for compatibility)
   ISTART =      0    job   : 0-new  1-cont  2-samecut
   ICHARG =      2    charge: 1-file 2-atom 10-const
   ISPIN  =      1    spin polarized calculation?
   LNONCOLLINEAR =      F non collinear calculations
   LSORBIT =      F    spin-orbit coupling
   INIWAV =      1    electr: 0-lowe 1-rand  2-diag
   LASPH  =      T    aspherical Exc in radial PAW
   METAGGA=      F    non-selfconsistent MetaGGA calc.

 Electronic Relaxation 1
   ENCUT  =  300.0 eV  22.05 Ry    4.70 a.u.   9.61  9.54 17.99*2*pi/ulx,y,z
   ENINI  =  300.0     initial cutoff
   ENAUG  =  446.8 eV  augmentation charge cutoff
   NELM   =     60;   NELMIN=  2; NELMDL= -5     # of ELM steps
   EDIFF  = 0.1E-03   stopping-criterion for ELM
   LREAL  =      T    real-space projection
   NLSPLINE    = F    spline interpolate recip. space projectors
   LCOMPAT=      F    compatible to vasp.4.4
   GGA_COMPAT  = T    GGA compatible to vasp.4.4-vasp.4.6
   LMAXPAW     = -100 max onsite density
   LMAXMIX     =    4 max onsite mixed and CHGCAR
   VOSKOWN=      0    Vosko Wilk Nusair interpolation
   ROPT   =   -0.00200  -0.00200  -0.00200
 Ionic relaxation
   EDIFFG = -.5E-01   stopping-criterion for IOM
   NSW    =     99    number of steps for IOM
   NBLOCK =      1;   KBLOCK =     99    inner block; outer block
   IBRION =      2    ionic relax: 0-MD 1-quasi-New 2-CG
   NFREE  =      1    steps in history (QN), initial steepest desc. (CG)
   ISIF   =      3    stress and relaxation
   IWAVPR =     11    prediction:  0-non 1-charg 2-wave 3-comb
   ISYM   =      2    0-nonsym 1-usesym 2-fastsym
   LCORR  =      T    Harris-Foulkes like correction to forces

   POTIM  = 0.1000    time-step for ionic-motion
   TEIN   =    0.0    initial temperature
   TEBEG  =    0.0;   TEEND  =   0.0 temperature during run
   SMASS  =  -3.00    Nose mass-parameter (am)
   estimated Nose-frequenzy (Omega)   =  0.10E-29 period in steps =****** mass=  -0.106E-26a.u.
   SCALEE = 1.0000    scale energy and forces
   NPACO  =    256;   APACO  = 16.0  distance and # of slots for P.C.
   PSTRESS=    0.0 pullay stress

  Mass of Ions in am
   POMASS =  39.10121.75 78.96
  Ionic Valenz
   ZVAL   =   7.00  5.00  6.00
  Atomic Wigner-Seitz radii
  virtual crystal weights
   VCA    =   1.00  1.00  1.00
   NELECT =      96.0000    total number of electrons
   NUPDOWN=      -1.0000    fix difference up-down

 DOS related values:
   EMIN   =  10.00;   EMAX   =-10.00  energy-range for DOS
   EFERMI =   0.00
   ISMEAR =     0;   SIGMA  =   0.05  broadening in eV -4-tet -1-fermi 0-gaus

 Electronic relaxation 2 (details)
   IALGO  =     38    algorithm
   LDIAG  =      T    sub-space diagonalisation (order eigenvalues)
   LSUBROT=      F    optimize rotation matrix (better conditioning)
   TURBO    =      0    0=normal 1=particle mesh
   IRESTART =      0    0=no restart 2=restart with 2 vectors
   NREBOOT  =      0    no. of reboots
   NMIN     =      0    reboot dimension
   EREF     =   0.00    reference energy to select bands
   IMIX   =      4    mixing-type and parameters
     AMIX     =   0.40;   BMIX     =  1.00
     AMIX_MAG =   1.60;   BMIX_MAG =  1.00
     AMIN     =   0.10
     WC   =   100.;   INIMIX=   1;  MIXPRE=   1;  MAXMIX= -45

 Intra band minimization:
   WEIMIN = 0.0010     energy-eigenvalue tresh-hold
   EBREAK =  0.36E-06  absolut break condition
[...]
 d Force = 0.1216148E+01[ 0.121E+01, 0.122E+01]  d Ewald  =-0.2463439E+00 0.146E+01

[...]

 d Force = 0.4715543E-02[ 0.438E-02, 0.505E-02]  d Energy = 0.1123192E-01-0.652E-02
 d Force = 0.1389402E+01[ 0.138E+01, 0.140E+01]  d Ewald  = 0.5158828E+01-0.377E+01

 Conjugate gradient step on ions:
 trial-energy change:   -0.011232  1 .order   -0.010861   -0.011316   -0.010406
  (g-gl).g = 0.791E-02      g.g   = 0.672E-02  gl.gl    = 0.110E-01
 g(Force)  = 0.237E-02   g(Stress)= 0.435E-02 ortho     =-0.119E-02
 gamma     =   0.71714
 trial     =   1.92708
 opt step  =   7.70833  (harmonic =  23.95633) maximal distance =0.02416899
 next E    =   -59.835863   (d E  =  -0.07034)

[...]

 d Force = 0.4690027E-02[-0.124E-01, 0.217E-01]  d Energy = 0.2215997E-01-0.175E-01
 d Force = 0.7571413E+01[ 0.725E+01, 0.789E+01]  d Ewald  = 0.3056202E+02-0.230E+02

[...]

 d Force = 0.1206267E-01[ 0.708E-02, 0.170E-01]  d Energy = 0.1044783E-01 0.161E-02
 d Force =-0.1883300E+01[-0.192E+01,-0.184E+01]  d Ewald  = 0.8521712E+01-0.104E+02

[...]

 d Force =-0.4254783E-03[-0.450E-03,-0.401E-03]  d Energy = 0.7936796E-04-0.505E-03
 d Force = 0.1086724E+00[ 0.109E+00, 0.109E+00]  d Ewald  =-0.4804397E+00 0.589E+00

[...]

 d Force = 0.4503593E-02[-0.144E-02, 0.104E-01]  d Energy = 0.7397519E-02-0.289E-02
 d Force =-0.1309949E+01[-0.133E+01,-0.129E+01]  d Ewald  =-0.3693232E+01 0.238E+01

[...]

 d Force =-0.3454994E-03[-0.461E-03,-0.230E-03]  d Energy = 0.3278403E-03-0.673E-03
 d Force =-0.2128326E+00[-0.213E+00,-0.212E+00]  d Ewald  =-0.5951371E+00 0.382E+00

[...]

 Conjugate gradient step on ions:
 trial-energy change:   -0.007327  1 .order   -0.008228   -0.014656   -0.001800
  (g-gl).g = 0.328E-02      g.g   = 0.605E-02  gl.gl    = 0.383E-02
 g(Force)  = 0.248E-02   g(Stress)= 0.357E-02 ortho     = 0.354E-03
 gamma     =   0.85631
 trial     =   2.30698
 opt step  =   3.02767  (harmonic =   2.63002) maximal distance =0.00752117
 next E    =   -59.854663   (d E  =  -0.00758)

[...]

 d Force =-0.5975054E-04[-0.203E-03, 0.837E-04]  d Energy = 0.1265474E-03-0.186E-03
 d Force = 0.1106374E+00[ 0.110E+00, 0.111E+00]  d Ewald  =-0.2181426E+01 0.229E+01

[...]

 d Force = 0.1741291E-02[ 0.137E-02, 0.212E-02]  d Energy = 0.1570888E-02 0.170E-03
 d Force =-0.6315942E+00[-0.633E+00,-0.630E+00]  d Ewald  =-0.2928821E+01 0.230E+01

[...]

 d Force = 0.3026872E-03[-0.518E-03, 0.112E-02]  d Energy = 0.4306584E-03-0.128E-03
 d Force =-0.9310221E+00[-0.936E+00,-0.926E+00]  d Ewald  = 0.1098116E+00-0.104E+01

[...]

 d Force = 0.4273717E-03[-0.523E-03, 0.138E-02]  d Energy =-0.1041995E-02 0.147E-02
 d Force =-0.3523299E+00[-0.358E+00,-0.347E+00]  d Ewald  = 0.9943175E+00-0.135E+01

[...]

 d Force = 0.5601884E-04[-0.224E-03, 0.336E-03]  d Energy = 0.9032949E-03-0.847E-03
 d Force = 0.2278298E+00[ 0.226E+00, 0.230E+00]  d Ewald  =-0.6397752E+00 0.868E+00

[...]

 d Force = 0.1219761E-02[-0.115E-02, 0.359E-02]  d Energy = 0.1156882E-02 0.629E-04
 d Force = 0.6837162E+00[ 0.677E+00, 0.690E+00]  d Ewald  =-0.1990113E+01 0.267E+01

[...]

 d Force = 0.7929725E-04[-0.202E-03, 0.361E-03]  d Energy = 0.4173673E-03-0.338E-03
 d Force =-0.2127665E+00[-0.213E+00,-0.212E+00]  d Ewald  = 0.6238249E+00-0.837E+00

[...]

 d Force = 0.2148229E-02[ 0.201E-02, 0.228E-02]  d Energy = 0.1553397E-02 0.595E-03
 d Force = 0.2359963E-01[ 0.214E-01, 0.258E-01]  d Ewald  = 0.6281501E-01-0.392E-01

[...]

 d Force = 0.1185296E-03[-0.379E-02, 0.403E-02]  d Energy =-0.3716979E-02 0.384E-02
 d Force = 0.3118931E-01[ 0.221E-01, 0.403E-01]  d Ewald  = 0.1032789E+00-0.721E-01

[...]

 d Force = 0.6537563E-03[-0.203E-04, 0.133E-02]  d Energy = 0.5921435E-03 0.616E-04
 d Force =-0.1392612E+00[-0.140E+00,-0.138E+00]  d Ewald  =-0.2316840E-01-0.116E+00

[...]

 d Force =-0.2066862E-03[-0.419E-03, 0.583E-05]  d Energy =-0.7205528E-04-0.135E-03
 d Force = 0.4293467E-01[ 0.428E-01, 0.430E-01]  d Ewald  = 0.7249363E-02 0.357E-01

[...]

 d Force = 0.2466926E-02[ 0.921E-03, 0.401E-02]  d Energy = 0.2179441E-02 0.287E-03
 d Force =-0.5219227E+00[-0.526E+00,-0.518E+00]  d Ewald  =-0.4089278E+00-0.113E+00

[...]

 Conjugate gradient step on ions:
 trial-energy change:   -0.002207  1 .order   -0.002335   -0.002333   -0.002338
  (g-gl).g = 0.519E-03      g.g   = 0.131E-02  gl.gl    = 0.161E-02
 g(Force)  = 0.106E-02   g(Stress)= 0.251E-03 ortho     = 0.622E-04
 gamma     =   0.32142
 trial     =   1.75188
 opt step  =   7.00751  (harmonic =   7.00751) maximal distance =0.01080056
 next E    =   -59.889458   (d E  =  -0.00937)

[...]

 d Force = 0.3138902E-02[ 0.135E-05, 0.628E-02]  d Energy = 0.2434616E-02 0.704E-03
 d Force = 0.4802301E+00[ 0.470E+00, 0.490E+00]  d Ewald  =-0.1148828E+01 0.163E+01

[...]

 d Force = 0.7674796E-03[-0.214E-04, 0.156E-02]  d Energy = 0.7643800E-03 0.310E-05
 d Force = 0.9114658E-01[ 0.893E-01, 0.930E-01]  d Ewald  = 0.1284934E+00-0.373E-01

[...]

 d Force =-0.3741970E-05[-0.623E-05,-0.125E-05]  d Energy =-0.2963372E-04 0.259E-04
 d Force = 0.5208708E-02[ 0.520E-02, 0.521E-02]  d Ewald  = 0.7372324E-02-0.216E-02

[...]

 eigenvalue-minimisations  :  1540
 total energy-change (2. order) :-0.8382396E-04  (-0.1793842E-03)
 number of electron      96.0000160 magnetization
 augmentation part        2.7004519 magnetization

 Broyden mixing:
  rms(total) = 0.34576E-02    rms(broyden)= 0.34574E-02
  rms(prec ) = 0.42025E-02
  weight for this iteration     100.00

 eigenvalues of (default mixing * dielectric matrix)
  average eigenvalue GAMMA=   0.8845
  0.8845

[...]

--------------------------------------- Iteration     50(   3)  ---------------------------------------

 eigenvalue-minimisations  :   896
 total energy-change (2. order) : 0.2057660E-04  (-0.6001063E-05)
 number of electron      96.0000160 magnetization
 augmentation part        2.7004519 magnetization

 Free energy of the ion-electron system (eV)
  alpha Z        PSCENC =       210.66555963
  Ewald energy   TEWEN  =     -3606.55092401
  -Hartree energ DENC   =      -771.11855157
  -exchange      EXHF   =         0.00000000
  -V(xc)+E(xc)   XCENC  =      -142.52974079
  PAW double counting   =      5150.25532965    -4810.53360990
  entropy T*S    EENTRO =        -0.00000000
  eigenvalues    EBANDS =      -548.79177666
  atomic energy  EATOM  =      4458.71741050
  Solvation  Ediel_sol  =         0.00000000
  free energy    TOTEN  =       -59.88630315 eV

  energy without entropy =      -59.88630315  energy(sigma->0) =      -59.88630315

 average (electrostatic) potential at core
  the test charge radii are     1.3383  1.1712  1.0808
  (the norm of the test charge is              1.0000)
       1 -12.5003       2 -12.4862       3 -12.5003       4 -12.4862       5 -91.6721
       6 -91.7127       7 -91.7127       8 -91.6721       9 -56.0833      10 -56.0833
      11 -56.2399      12 -55.9970      13 -56.2399      14 -55.9970      15 -56.1883
      16 -56.1883

 E-fermi :   1.2146     XC(G=0):  -8.0761     alpha+bet : -7.2162

[...]

 k-point     9 :      -0.3333   -0.3333    0.2500
  band No.  band energies     occupation
      1     -12.1483      2.00000
      2     -12.0477      2.00000
      3     -12.0203      2.00000
      4     -12.0140      2.00000
      5     -12.0030      2.00000
      6     -11.9918      2.00000
      7     -11.9675      2.00000
      8     -11.9467      2.00000
      9     -11.9285      2.00000
     10     -11.9273      2.00000
     11     -11.9195      2.00000
     12     -11.9138      2.00000
     13     -11.5739      2.00000
     14     -11.3051      2.00000
     15     -11.1447      2.00000
     16     -10.6185      2.00000
     17     -10.5847      2.00000
     18     -10.5388      2.00000
     19     -10.4324      2.00000
     20     -10.4174      2.00000
     21      -7.6389      2.00000
     22      -6.9349      2.00000
     23      -6.8602      2.00000
     24      -6.3921      2.00000
     25      -2.7960      2.00000
     26      -2.2009      2.00000
     27      -2.1137      2.00000
     28      -2.0554      2.00000
     29      -1.8850      2.00000
     30      -1.8552      2.00000
     31      -1.6458      2.00000
     32      -1.3681      2.00000
     33      -1.2053      2.00000
     34      -1.0134      2.00000
     35      -0.5997      2.00000
     36      -0.4595      2.00000
     37      -0.3123      2.00000
     38      -0.2789      2.00000
     39      -0.0518      2.00000
     40       0.0836      2.00000
     41       0.1450      2.00000
     42       0.2101      2.00000
     43       0.3077      2.00000
     44       0.4196      2.00000
     45       0.5638      2.00000
     46       0.7067      2.00000
     47       0.8540      2.00000
     48       0.8840      2.00000
     49       2.7247      0.00000
     50       2.8688      0.00000
     51       3.0595      0.00000
     52       3.3730      0.00000
     53       3.5879      0.00000
     54       3.7786      0.00000
     55       4.0538      0.00000
     56       4.0758      0.00000
     57       4.1934      0.00000
     58       4.4029      0.00000
     59       4.5279      0.00000
     60       4.7579      0.00000
     61       6.2396      0.00000
     62       6.3746      0.00000
     63       6.4949      0.00000
     64       6.5933      0.00000
     65       7.0075      0.00000
     66       7.1745      0.00000
     67       7.2540      0.00000
     68       7.4083      0.00000
     69       7.5587      0.00000
     70       7.5935      0.00000

 soft charge-density along one line, spin component           1
         0         1         2         3         4         5         6         7         8         9
 total charge-density along one line

------------------------ aborting loop because EDIFF is reached ----------------------------------------

[...]

  FORCE on cell =-STRESS in cart. coord.  units (eV):
  Direction    XX          YY          ZZ          XY          YZ          ZX
  Alpha Z   210.66556   210.66556   210.66556
  Ewald   -1205.50963 -1269.64018 -1131.40911     4.18950   -22.77299    -2.16381
  Hartree   260.43169   217.01245   293.60312     0.28765   -15.67695    -5.34047
  E(xc)    -363.54725  -363.79718  -361.42583     0.06537    -0.54241    -0.21935
  Local    -235.79650  -128.71230  -337.25108    -3.38832    39.26657     9.16861
  n-local   571.41987   572.08251   556.72671    -0.13281     3.63948     1.54132
  augment   -76.61261   -77.57308   -74.63152     0.18064    -0.55396    -0.26984
  Kinetic   838.66598   840.08584   843.92572    -1.27446    -3.24952    -2.49711
  Fock        0.00000     0.00000     0.00000     0.00000     0.00000     0.00000
  Total      -0.28289     0.12363     0.20356    -0.07243     0.11022     0.21935
  in kB      -0.84841     0.37077     0.61048    -0.21722     0.33055     0.65783

 VOLUME and BASIS-vectors are now :
  energy-cutoff  :      300.00
  volume of cell :      534.23
      direct lattice vectors                 reciprocal lattice vectors
     6.621979585  0.059011524  0.103244689     0.150129078  0.036791844  0.035616053
    -1.614036036  6.567563284  0.019119983    -0.001870472  0.151706964  0.033258535
    -2.232834971 -2.703025131 12.204124025    -0.001267134 -0.000548929  0.081586104

  length of vectors
     6.623047294  6.763014519 12.697737597     0.158621824  0.155321060  0.081597790

 FORCES acting on ions
    electron-ion (+dipol)            ewald-force                    non-local-force                 convergence-correction
   -.245E+01 -.251E+02 0.404E+01   0.231E+01 0.239E+02 -.388E+01   0.136E+00 0.115E+01 -.180E+00   -.312E-02 -.320E-02 0.967E-02
   -.290E+01 0.125E+02 0.111E+02   0.278E+01 -.115E+02 -.104E+02   0.153E+00 -.100E+01 -.705E+00   -.771E-02 -.778E-03 0.141E-02
   0.245E+01 0.251E+02 -.404E+01   -.231E+01 -.239E+02 0.388E+01   -.136E+00 -.115E+01 0.180E+00   0.312E-02 0.320E-02 -.967E-02
   0.290E+01 -.125E+02 -.111E+02   -.278E+01 0.115E+02 0.104E+02   -.153E+00 0.100E+01 0.705E+00   0.771E-02 0.778E-03 -.141E-02
   -.295E+02 0.267E+02 0.352E+00   0.368E+02 -.343E+02 0.811E+00   -.740E+01 0.763E+01 -.114E+01   -.256E-02 0.977E-03 0.296E-02
   -.236E+02 -.308E+02 -.839E+01   0.303E+02 0.387E+02 0.106E+02   -.670E+01 -.792E+01 -.222E+01   -.248E-02 -.414E-02 -.192E-02
   0.236E+02 0.308E+02 0.839E+01   -.303E+02 -.387E+02 -.106E+02   0.670E+01 0.792E+01 0.222E+01   0.248E-02 0.414E-02 0.192E-02
   0.295E+02 -.267E+02 -.352E+00   -.368E+02 0.343E+02 -.811E+00   0.740E+01 -.763E+01 0.114E+01   0.256E-02 -.977E-03 -.296E-02
   0.408E+02 0.207E+02 -.761E+00   -.428E+02 -.211E+02 0.133E+01   0.191E+01 0.324E+00 -.572E+00   0.643E-02 0.103E-01 -.222E-02
   -.408E+02 -.207E+02 0.761E+00   0.428E+02 0.211E+02 -.133E+01   -.191E+01 -.324E+00 0.572E+00   -.643E-02 -.103E-01 0.222E-02
   0.426E+02 -.154E+02 -.165E+02   -.446E+02 0.150E+02 0.173E+02   0.200E+01 0.446E+00 -.811E+00   0.463E-02 -.263E-02 -.792E-02
   -.638E+01 -.380E+02 -.379E+01   0.646E+01 0.400E+02 0.367E+01   -.671E-01 -.203E+01 0.104E+00   -.101E-02 0.363E-02 0.230E-02
   -.426E+02 0.154E+02 0.165E+02   0.446E+02 -.150E+02 -.173E+02   -.200E+01 -.446E+00 0.811E+00   -.463E-02 0.263E-02 0.792E-02
   0.638E+01 0.380E+02 0.379E+01   -.646E+01 -.400E+02 -.367E+01   0.671E-01 0.203E+01 -.104E+00   0.101E-02 -.363E-02 -.230E-02
   0.130E+02 -.299E+02 -.176E+02   -.133E+02 0.316E+02 0.192E+02   0.209E+00 -.164E+01 -.165E+01   0.337E-02 -.701E-02 0.659E-02
   -.130E+02 0.299E+02 0.176E+02   0.133E+02 -.316E+02 -.192E+02   -.209E+00 0.164E+01 0.165E+01   -.337E-02 0.701E-02 -.659E-02
   -.942E-12 -.854E-12 0.291E-11   0.000E+00 0.000E+00 -.142E-13   0.833E-16 0.444E-15 -.222E-15   -.676E-13 0.876E-12 -.190E-11

 POSITION                                       TOTAL-FORCE (eV/Angst)
      2.89628      1.67294      1.95829        -0.002566     -0.001793     -0.015202
      3.56613      3.27434      7.28993         0.020004      0.001233      0.014527
     -0.12117      2.25061     10.36820         0.002566      0.001793      0.015202
     -0.79103      0.64921      5.03656        -0.020004     -0.001233     -0.014527
      0.67721      4.41825      4.32065        -0.031380     -0.001962      0.023287
     -2.29297     -1.07138     11.11935         0.017169     -0.036588     -0.015715
      5.06808      4.99493      1.20714        -0.017169      0.036588      0.015715
      2.09790     -0.49470      8.00583         0.031380      0.001962     -0.023287
     -1.87860      4.08171      3.96629         0.003399     -0.048117     -0.002369
      4.65371     -0.15816      8.36020        -0.003399      0.048117      0.002369
      1.75029     -0.92757     10.79085         0.024222      0.007689      0.017472
      2.48401      0.32106      5.04709         0.015598      0.009248     -0.017173
      1.02482      4.85112      1.53564        -0.024222     -0.007689     -0.017472
      0.29110      3.60249      7.27940        -0.015598     -0.009248      0.017173
     -0.38989      0.85626      1.65681        -0.021542      0.032834     -0.002289
      3.16500      3.06729     10.66968         0.021542     -0.032834      0.002289
    total drift:                               -0.000000      0.000000      0.000000

  FREE ENERGIE OF THE ION-ELECTRON SYSTEM (eV)
  free  energy   TOTEN  =       -59.88630315 eV

  energy  without entropy=      -59.88630315  energy(sigma->0) =      -59.88630315

 d Force = 0.6722866E-03[ 0.421E-03, 0.923E-03]  d Energy = 0.8407589E-03-0.168E-03
 d Force =-0.4756209E-01[-0.495E-01,-0.456E-01]  d Ewald  = 0.2035095E+00-0.251E+00

 Conjugate gradient step on ions:
 trial-energy change:   -0.000841  1 .order   -0.000826   -0.001052   -0.000599
  (g-gl).g = 0.255E-03      g.g   = 0.384E-03  gl.gl    = 0.674E-03
 g(Force)  = 0.340E-03   g(Stress)= 0.442E-04 ortho     =-0.345E-04
 gamma     =   0.37804
 trial     =   2.83573
 opt step  =   6.58746  (harmonic =   6.58746) maximal distance =0.00505163
 next E    =   -59.886685   (d E  =  -0.00122)

 reached required accuracy - stopping structural energy minimisation

 total charge

# of ion       s       p       d       tot
    1        0.065   6.053   0.060   6.178
    2        0.072   6.066   0.066   6.205
    3        0.065   6.053   0.060   6.178
    4        0.072   6.066   0.066   6.205
    5        1.253   0.995   0.056   2.303
    6        1.254   0.991   0.056   2.300
    7        1.254   0.991   0.056   2.300
    8        1.253   0.995   0.056   2.303
    9        1.465   2.332   0.016   3.812
   10        1.465   2.332   0.016   3.812
   11        1.468   2.326   0.018   3.812
   12        1.462   2.348   0.015   3.826
   13        1.468   2.326   0.018   3.812
   14        1.462   2.348   0.015   3.826
   15        1.468   2.335   0.019   3.822
   16        1.468   2.335   0.019   3.822
tot         17.013  46.890   0.614  64.516