 vasp.5.4.4.18Apr17-6-g9f103f2a35 (build Oct 27 2022 13:04:57) complex

 executed on             LinuxIFC date 2024.07.04  12:18:47

 INCAR:
 POTCAR:    PAW_PBE Li 17Jan2003
 POTCAR:    PAW_PBE Sb 06Sep2000
 POTCAR:    PAW_PBE Se 06Sep2000

 POTCAR:    PAW_PBE Li 17Jan2003
   VRHFIN =Li: s1p0

   TITEL  = PAW_PBE Li 17Jan2003
   POMASS =    7.010; ZVAL   =    1.000    mass and valenz
   ENMAX  =  140.000; ENMIN  =  100.000 eV

 POTCAR:    PAW_PBE Sb 06Sep2000
   VRHFIN =Sb: s2p3

   TITEL  = PAW_PBE Sb 06Sep2000
   POMASS =  121.750; ZVAL   =    5.000    mass and valenz
   ENMAX  =  172.069; ENMIN  =  129.052 eV

 POTCAR:    PAW_PBE Se 06Sep2000
   VRHFIN =Se: s2p4

   TITEL  = PAW_PBE Se 06Sep2000
   POMASS =   78.960; ZVAL   =    6.000    mass and valenz
   ENMAX  =  211.555; ENMIN  =  158.666 eV

 Optimization of the real space projectors (new method)

 maximal supplied QI-value         = 18.33
 optimisation between [QCUT,QGAM] = [  8.80, 17.60] = [ 21.68, 86.71] Ry
 Optimized for a Real-space Cutoff    1.15 Angstroem

   l    n(q)    QCUT    max X(q) W(low)/X(q) W(high)/X(q)  e(spline)
   0      6     8.799    33.825    0.11E-02    0.11E-02    0.82E-07
   0      6     8.799     8.944    0.75E-03    0.85E-03    0.59E-07
   1      5     8.799     4.214    0.92E-03    0.27E-03    0.41E-07
 Optimization of the real space projectors (new method)

[...]

   l    n(q)    QCUT    max X(q) W(low)/X(q) W(high)/X(q)  e(spline)
   0      7     8.776    19.000    0.12E-02    0.42E-03    0.95E-07
   0      7     8.776     9.057    0.14E-02    0.54E-03    0.11E-06
   1      6     8.776   125.345    0.45E-03    0.22E-02    0.77E-07
   1      6     8.776    79.963    0.45E-03    0.21E-02    0.76E-07
   2      6     8.776     6.963    0.11E-02    0.51E-03    0.39E-07
 Optimization of the real space projectors (new method)

 maximal supplied QI-value         = 17.95
 optimisation between [QCUT,QGAM] = [  8.80, 17.59] = [ 21.67, 86.68] Ry
 Optimized for a Real-space Cutoff    1.19 Angstroem

   l    n(q)    QCUT    max X(q) W(low)/X(q) W(high)/X(q)  e(spline)
   0      6     8.797   133.320    0.14E-02    0.11E-02    0.95E-07
   0      6     8.797   111.601    0.15E-02    0.12E-02    0.10E-06
   1      6     8.797    47.222    0.19E-02    0.96E-03    0.11E-06
   1      6     8.797    33.775    0.19E-02    0.99E-03    0.11E-06
   2      5     8.797     3.720    0.16E-02    0.14E-02    0.40E-07
  PAW_PBE Li 17Jan2003                  :
  PAW_PBE Sb 06Sep2000                  :
  PAW_PBE Se 06Sep2000                  :

 POSCAR: Li4 Sb8 Se14
  positions in direct lattice
  velocities in cartesian coordinates
 exchange correlation table for  LEXCH =        8
   RHO(1)=    0.500       N(1)  =     2000
   RHO(2)=  100.500       N(2)  =     4000

 ion  position               nearest neighbor table
   1  0.340  0.331  0.134-  25 2.66  19 2.72  22 2.80  18 2.97
   2  0.368  0.838  0.640-  21 2.63  16 2.63  23 2.67  24 3.04
   3  0.632  0.162  0.360-  19 2.63  24 2.63  22 2.67  16 3.04
   4  0.660  0.669  0.866-  15 2.66  21 2.72  23 2.80  14 2.97
   5  0.032  0.958  0.332-  24 2.64  17 2.71  13 2.83  16 3.00  19 3.23
   6  0.119  0.457  0.810-  15 2.67  20 2.71  23 2.77  26 2.99  18 3.14
   7  0.768  0.133  0.048-  19 2.68  22 2.72  14 2.79  13 3.07  21 3.17  26 3.27
   8  0.528  0.246  0.754-  15 2.72  14 2.73  26 2.84  20 2.99  21 3.18  16 3.20
   9  0.232  0.867  0.952-  21 2.68  23 2.72  18 2.79  26 3.07  19 3.17  13 3.27
  10  0.968  0.042  0.668-  16 2.64  20 2.71  26 2.83  24 3.00  21 3.23
  11  0.881  0.543  0.190-  25 2.67  17 2.71  22 2.77  13 2.99  14 3.14
  12  0.472  0.754  0.246-  25 2.72  18 2.73  13 2.84  17 2.99  19 3.18  24 3.20
  13  0.839  0.839  0.122-   5 2.83  12 2.84  11 2.99   7 3.07   9 3.27
  14  0.691  0.384  0.957-   8 2.73   7 2.79   4 2.97  11 3.14
  15  0.462  0.507  0.690-   4 2.66   6 2.67   8 2.72
  16  0.292  0.062  0.537-   2 2.63  10 2.64   5 3.00   3 3.04   8 3.20
  17  0.084  0.688  0.376-   5 2.71  11 2.71  12 2.99
  18  0.309  0.616  0.043-  12 2.73   9 2.79   1 2.97   6 3.14
  19  0.427  0.068  0.171-   3 2.63   7 2.68   1 2.72   9 3.17  12 3.18   5 3.23
  20  0.916  0.312  0.624-  10 2.71   6 2.71   8 2.99
  21  0.573  0.932  0.829-   2 2.63   9 2.68   4 2.72   7 3.17   8 3.18  10 3.23
  22  0.964  0.277  0.238-   3 2.67   7 2.72  11 2.77   1 2.80
  23  0.036  0.723  0.762-   2 2.67   9 2.72   6 2.77   4 2.80
  24  0.708  0.938  0.463-   3 2.63   5 2.64  10 3.00   2 3.04  12 3.20
  25  0.538  0.493  0.310-   1 2.66  11 2.67  12 2.72
  26  0.161  0.161  0.878-  10 2.83   8 2.84   6 2.99   9 3.07   7 3.27

  LATTYP: Found a triclinic cell.
 ALAT       =     9.2870370408
 B/A-ratio  =     1.0960433374
 C/A-ratio  =     1.2151746828
 COS(alpha) =     0.0150933183
 COS(beta)  =     0.0599912637
 COS(gamma) =     0.7364994056

  Lattice vectors:

 A1 = (   2.2020923632,   9.0042204616,  -0.5690870770)
 A2 = (  -4.9109739642,   8.8923822108,  -0.6479305807)
 A3 = (   0.4958317705,   1.2849561361,  11.2010118430)

Analysis of symmetry for initial positions (statically):
 Subroutine PRICEL returns:
 Original cell was already a primitive cell.

 Routine SETGRP: Setting up the symmetry group for a
 triclinic supercell.

 Subroutine GETGRP returns: Found  2 space group operations
 (whereof  2 operations were pure point group operations)
 out of a pool of  2 trial point group operations.

The static configuration has the point symmetry S_2 .

Analysis of symmetry for dynamics (positions and initial velocities):
 Subroutine PRICEL returns:
 Original cell was already a primitive cell.

 Routine SETGRP: Setting up the symmetry group for a
 triclinic supercell.

 Subroutine GETGRP returns: Found  2 space group operations
 (whereof  2 operations were pure point group operations)
 out of a pool of  2 trial point group operations.

The dynamic configuration has the point symmetry S_2 .

 Subroutine INISYM returns: Found  2 space group operations
 (whereof  2 operations are pure point group operations),
 and found     1 'primitive' translations

 KPOINTS: pymatgen with grid density = 807 / numbe

Automatic generation of k-mesh.
Space group operators:
 irot       det(A)        alpha          n_x          n_y          n_z        tau_x        tau_y        tau_z
    1     1.000000     0.000002     1.000000     0.000000     0.000000     0.000000     0.000000     0.000000
    2    -1.000000     0.000002     1.000000     0.000000     0.000000     0.000000     0.000000     0.000000

 Subroutine IBZKPT returns following result:

 Found      6 irreducible k-points:

 Following reciprocal coordinates:
            Coordinates               Weight
 -0.000000  0.250000  0.250000      2.000000
  0.333333  0.250000  0.250000      2.000000
 -0.333333  0.250000  0.250000      2.000000
  0.000000 -0.250000  0.250000      2.000000
  0.333333 -0.250000  0.250000      2.000000
 -0.333333 -0.250000  0.250000      2.000000

 Following cartesian coordinates:
            Coordinates               Weight
 -0.000131  0.026197 -0.025319      2.000000
 -0.047183  0.037752 -0.024562      2.000000
  0.046921  0.014642 -0.026076      2.000000
  0.000669 -0.029130 -0.019007      2.000000
 -0.046384 -0.017575 -0.018250      2.000000
  0.047721 -0.040685 -0.019765      2.000000

 SYSTEM =  CIS
 POSCAR =  Li4 Sb8 Se14

 Startparameter for this run:
   NWRITE =      2    write-flag & timer
   PREC   = medium    normal or accurate (medium, high low for compatibility)
   ISTART =      0    job   : 0-new  1-cont  2-samecut
   ICHARG =      2    charge: 1-file 2-atom 10-const
   ISPIN  =      1    spin polarized calculation?
   LNONCOLLINEAR =      F non collinear calculations
   LSORBIT =      F    spin-orbit coupling
   INIWAV =      1    electr: 0-lowe 1-rand  2-diag
   LASPH  =      T    aspherical Exc in radial PAW
   METAGGA=      F    non-selfconsistent MetaGGA calc.

 Electronic Relaxation 1
   ENCUT  =  300.0 eV  22.05 Ry    4.70 a.u.  10.05 13.12 15.94*2*pi/ulx,y,z
   ENINI  =  300.0     initial cutoff
   ENAUG  =  446.8 eV  augmentation charge cutoff
   NELM   =     60;   NELMIN=  2; NELMDL= -5     # of ELM steps
   EDIFF  = 0.1E-03   stopping-criterion for ELM
   LREAL  =      T    real-space projection
   NLSPLINE    = F    spline interpolate recip. space projectors
   LCOMPAT=      F    compatible to vasp.4.4
   GGA_COMPAT  = T    GGA compatible to vasp.4.4-vasp.4.6
   LMAXPAW     = -100 max onsite density
   LMAXMIX     =    4 max onsite mixed and CHGCAR
   VOSKOWN=      0    Vosko Wilk Nusair interpolation
   ROPT   =   -0.00200  -0.00200  -0.00200
 Ionic relaxation
   EDIFFG = -.5E-01   stopping-criterion for IOM
   NSW    =     99    number of steps for IOM
   NBLOCK =      1;   KBLOCK =     99    inner block; outer block
   IBRION =      2    ionic relax: 0-MD 1-quasi-New 2-CG
   NFREE  =      1    steps in history (QN), initial steepest desc. (CG)
   ISIF   =      3    stress and relaxation
   IWAVPR =     11    prediction:  0-non 1-charg 2-wave 3-comb
   ISYM   =      2    0-nonsym 1-usesym 2-fastsym
   LCORR  =      T    Harris-Foulkes like correction to forces

   POTIM  = 0.1000    time-step for ionic-motion
   TEIN   =    0.0    initial temperature
   TEBEG  =    0.0;   TEEND  =   0.0 temperature during run
   SMASS  =  -3.00    Nose mass-parameter (am)
   estimated Nose-frequenzy (Omega)   =  0.10E-29 period in steps =****** mass=  -0.116E-26a.u.
   SCALEE = 1.0000    scale energy and forces
   NPACO  =    256;   APACO  = 16.0  distance and # of slots for P.C.
   PSTRESS=    0.0 pullay stress

  Mass of Ions in am
   POMASS =   7.01121.75 78.96
  Ionic Valenz
   ZVAL   =   1.00  5.00  6.00
  Atomic Wigner-Seitz radii
  virtual crystal weights
   VCA    =   1.00  1.00  1.00
   NELECT =     128.0000    total number of electrons
   NUPDOWN=      -1.0000    fix difference up-down

 DOS related values:
   EMIN   =  10.00;   EMAX   =-10.00  energy-range for DOS
   EFERMI =   0.00
   ISMEAR =     0;   SIGMA  =   0.05  broadening in eV -4-tet -1-fermi 0-gaus

 Electronic relaxation 2 (details)
   IALGO  =     38    algorithm
   LDIAG  =      T    sub-space diagonalisation (order eigenvalues)
   LSUBROT=      F    optimize rotation matrix (better conditioning)
   TURBO    =      0    0=normal 1=particle mesh
   IRESTART =      0    0=no restart 2=restart with 2 vectors
   NREBOOT  =      0    no. of reboots
   NMIN     =      0    reboot dimension
   EREF     =   0.00    reference energy to select bands
   IMIX   =      4    mixing-type and parameters
     AMIX     =   0.40;   BMIX     =  1.00
     AMIX_MAG =   1.60;   BMIX_MAG =  1.00
     AMIN     =   0.10
     WC   =   100.;   INIMIX=   1;  MIXPRE=   1;  MAXMIX= -45

 Intra band minimization:
   WEIMIN = 0.0010     energy-eigenvalue tresh-hold
   EBREAK =  0.30E-06  absolut break condition
   DEPER  =   0.30     relativ break condition

   TIME   =   0.40     timestep for ELM

  volume/ion in A,a.u.               =      27.68       186.79
  Fermi-wavevector in a.u.,A,eV,Ry     =   0.920658  1.739791 11.532445  0.847611
  Thomas-Fermi vector in A             =   2.045988

 Write flags
   LWAVE        =      F    write WAVECAR
[...]
 d Force = 0.1663981E-01[ 0.166E-01, 0.167E-01]  d Ewald  =-0.2681996E-01 0.435E-01

[...]

 d Force =-0.7731232E-03[-0.259E-02, 0.104E-02]  d Energy =-0.1596776E-02 0.824E-03
 d Force = 0.4406267E+00[ 0.438E+00, 0.443E+00]  d Ewald  = 0.4004108E+00 0.402E-01

[...]

 eigenvalues of (default mixing * dielectric matrix)
  average eigenvalue GAMMA=   0.8112
  0.8112

[...]

 d Force =-0.3828279E-06[-0.409E-06,-0.356E-06]  d Energy =-0.7079152E-06 0.325E-06
 d Force =-0.1906718E-03[-0.191E-03,-0.191E-03]  d Ewald  =-0.1213075E-02 0.102E-02

[...]

 d Force = 0.1133158E-03[-0.312E-04, 0.258E-03]  d Energy = 0.7566029E-04 0.377E-04
 d Force = 0.4175080E-01[ 0.413E-01, 0.422E-01]  d Ewald  = 0.6366516E+00-0.595E+00

[...]

 d Force = 0.4856575E-03[ 0.367E-03, 0.604E-03]  d Energy = 0.4648839E-03 0.208E-04
 d Force = 0.2884130E-01[ 0.286E-01, 0.291E-01]  d Ewald  = 0.3273436E+00-0.299E+00

[...]

 eigenvalue-minimisations  :  1260
 total energy-change (2. order) : 0.5075968E-05  (-0.8601522E-04)
 number of electron     127.9999952 magnetization
 augmentation part      -22.2953270 magnetization

[...]

 d Force = 0.1110363E-03[-0.341E-03, 0.563E-03]  d Energy =-0.6491981E-04 0.176E-03
 d Force = 0.4336427E-01[ 0.428E-01, 0.439E-01]  d Ewald  = 0.5018997E+00-0.459E+00

[...]

 d Force = 0.9938673E-04[ 0.839E-04, 0.115E-03]  d Energy = 0.9656420E-04 0.282E-05
 d Force =-0.1446006E-01[-0.145E-01,-0.144E-01]  d Ewald  =-0.1687308E+00 0.154E+00

[...]

 d Force = 0.2078097E-04[-0.412E-04, 0.828E-04]  d Energy = 0.6036309E-04-0.396E-04
 d Force =-0.1438623E-01[-0.144E-01,-0.143E-01]  d Ewald  =-0.1665208E+00 0.152E+00

[...]

 d Force = 0.4238485E-03[ 0.115E-03, 0.733E-03]  d Energy = 0.2872676E-03 0.137E-03
 d Force =-0.2461795E-03[-0.544E-03, 0.517E-04]  d Ewald  = 0.6237744E-01-0.626E-01

 Conjugate gradient step on ions:
 trial-energy change:   -0.000287  1 .order   -0.000440   -0.000771   -0.000110
  (g-gl).g = 0.496E-03      g.g   = 0.103E-02  gl.gl    = 0.103E-02
 g(Force)  = 0.943E-03   g(Stress)= 0.908E-04 ortho     = 0.429E-04
 gamma     =   0.48175
 trial     =   0.73154
 opt step  =   0.85281  (harmonic =   0.85281) maximal distance =0.00088555
 next E    =  -102.538586   (d E  =  -0.00045)

[...]

 d Force = 0.9569173E-05[ 0.662E-07, 0.191E-04]  d Energy = 0.1056949E-04-0.100E-05
 d Force =-0.9864559E-04[-0.107E-03,-0.905E-04]  d Ewald  = 0.1028343E-01-0.104E-01

[...]

 Broyden mixing:
  rms(total) = 0.18229E-02    rms(broyden)= 0.18227E-02
  rms(prec ) = 0.20996E-02
  weight for this iteration     100.00

[...]

--------------------------------------- Iteration     81(   2)  ---------------------------------------

 eigenvalue-minimisations  :   700
 total energy-change (2. order) :-0.5660276E-05  (-0.1050131E-04)
 number of electron     127.9999954 magnetization
 augmentation part      -22.2979021 magnetization

 Free energy of the ion-electron system (eV)
  alpha Z        PSCENC =       129.78179485
  Ewald energy   TEWEN  =     -4299.94497768
  -Hartree energ DENC   =      -747.10240637
  -exchange      EXHF   =         0.00000000
  -V(xc)+E(xc)   XCENC  =      -390.48350143
  PAW double counting   =      6819.77445262    -6174.69968762
  entropy T*S    EENTRO =        -0.00000000
  eigenvalues    EBANDS =      -260.40633342
  atomic energy  EATOM  =      4820.54206163
  Solvation  Ediel_sol  =         0.00000000
  free energy    TOTEN  =      -102.53859742 eV

  energy without entropy =     -102.53859742  energy(sigma->0) =     -102.53859742

 average (electrostatic) potential at core
  the test charge radii are     0.9748  1.1712  1.0808
  (the norm of the test charge is              1.0000)
       1 -26.9134       2 -27.0143       3 -27.0143       4 -26.9134       5 -89.8762
       6 -89.8107       7 -89.8014       8 -89.8726       9 -89.8014      10 -89.8762
      11 -89.8107      12 -89.8726      13 -54.6884      14 -54.5069      15 -54.3403
      16 -54.3569      17 -54.7833      18 -54.5069      19 -54.3024      20 -54.7833
      21 -54.3024      22 -54.4337      23 -54.4337      24 -54.3569      25 -54.3403
      26 -54.6884

 E-fermi :   3.6057     XC(G=0):  -8.6275     alpha+bet : -8.9838

[...]

 k-point     6 :      -0.3333   -0.2500    0.2500
  band No.  band energies     occupation
      1     -10.1649      2.00000
      2      -9.9472      2.00000
      3      -9.7748      2.00000
      4      -9.5813      2.00000
      5      -9.4771      2.00000
      6      -9.2874      2.00000
      7      -9.0702      2.00000
      8      -9.0199      2.00000
      9      -8.9733      2.00000
     10      -8.8931      2.00000
     11      -8.8556      2.00000
     12      -8.8361      2.00000
     13      -8.7670      2.00000
     14      -8.7313      2.00000
     15      -5.7889      2.00000
     16      -5.6760      2.00000
     17      -5.5166      2.00000
     18      -5.4052      2.00000
     19      -5.0936      2.00000
     20      -4.8790      2.00000
     21      -4.7617      2.00000
     22      -4.5015      2.00000
     23      -1.5830      2.00000
     24      -1.4305      2.00000
     25      -1.0955      2.00000
     26      -1.0130      2.00000
     27      -0.7528      2.00000
     28      -0.7076      2.00000
     29      -0.4359      2.00000
     30      -0.3899      2.00000
     31      -0.2265      2.00000
     32      -0.1510      2.00000
     33      -0.1052      2.00000
     34       0.1249      2.00000
     35       0.2595      2.00000
     36       0.3274      2.00000
     37       0.3924      2.00000
     38       0.5734      2.00000
     39       0.6316      2.00000
     40       0.6719      2.00000
     41       0.7369      2.00000
     42       0.8224      2.00000
     43       0.8543      2.00000
     44       1.0661      2.00000
     45       1.1022      2.00000
     46       1.2491      2.00000
     47       1.3184      2.00000
     48       1.4342      2.00000
     49       1.6726      2.00000
     50       1.7334      2.00000
     51       1.7545      2.00000
     52       1.8972      2.00000
     53       1.9723      2.00000
     54       2.0762      2.00000
     55       2.0977      2.00000
     56       2.2111      2.00000
     57       2.2609      2.00000
     58       2.3040      2.00000
     59       2.3937      2.00000
     60       2.6090      2.00000
[...]
     70       5.3151      0.00000
     71       5.3934      0.00000
     72       5.4678      0.00000
     73       5.5925      0.00000
     74       5.8023      0.00000
     75       5.8820      0.00000
     76       5.9667      0.00000
     77       6.0450      0.00000
     78       6.1652      0.00000
     79       6.2871      0.00000
     80       6.3583      0.00000
     81       6.6339      0.00000
     82       6.8125      0.00000
     83       7.0593      0.00000
     84       7.2422      0.00000

 soft charge-density along one line, spin component           1
         0         1         2         3         4         5         6         7         8         9
 total charge-density along one line

------------------------ aborting loop because EDIFF is reached ----------------------------------------

[...]

  FORCE on cell =-STRESS in cart. coord.  units (eV):
  Direction    XX          YY          ZZ          XY          YZ          ZX
  Alpha Z   129.78179   129.78179   129.78179
  Ewald   -1243.58799 -1416.11329 -1640.25735    23.61533  -115.19973    39.24843
  Hartree   377.17615   264.33077   105.60368    10.96519   -79.07282    23.07611
  E(xc)    -477.08766  -476.96416  -477.34188     0.21492    -0.20793     0.40153
  Local   -1094.93394  -812.64540  -434.29218   -30.77733   192.53912   -59.80145
  n-local  1253.27491  1250.84081  1251.76424    -1.55930     1.24951    -3.24602
  augment  -198.86011  -199.06984  -199.51249     0.50941    -0.19596     0.76840
  Kinetic  1254.38275  1259.84167  1264.21768    -3.18905     0.85685    -0.39484
  Fock        0.00000     0.00000     0.00000     0.00000     0.00000     0.00000
  Total       0.14590     0.00235    -0.03650    -0.22084    -0.03097     0.05216
  in kB       0.32521     0.00525    -0.08135    -0.49224    -0.06903     0.11627

 VOLUME and BASIS-vectors are now :
  energy-cutoff  :      300.00
  volume of cell :      718.79
      direct lattice vectors                 reciprocal lattice vectors
    -7.105943575 -0.084857037 -0.037878850    -0.141143206  0.034189696  0.001436766
     2.169526932  8.980590229 -0.577453776    -0.001256048  0.110839675 -0.012675177
    -0.425962499 -1.287221864-11.214062464     0.000541432 -0.005823033 -0.088525911

  length of vectors
     7.106551176  9.256959590 11.295732872     0.145232243  0.111569132  0.088718869

 FORCES acting on ions
    electron-ion (+dipol)            ewald-force                    non-local-force                 convergence-correction
   -.327E+01 0.492E+00 0.289E+01   0.291E+01 -.540E+00 -.353E+01   0.345E+00 0.457E-01 0.643E+00   0.286E-03 -.194E-03 -.366E-04
   0.422E+01 0.863E+01 -.107E+02   -.374E+01 -.791E+01 0.101E+02   -.465E+00 -.720E+00 0.603E+00   0.106E-04 0.265E-03 0.224E-03
   -.422E+01 -.863E+01 0.107E+02   0.374E+01 0.791E+01 -.101E+02   0.465E+00 0.720E+00 -.603E+00   -.106E-04 -.265E-03 -.224E-03
   0.327E+01 -.492E+00 -.289E+01   -.291E+01 0.540E+00 0.353E+01   -.345E+00 -.457E-01 -.643E+00   -.286E-03 0.194E-03 0.366E-04
   0.117E+02 -.230E+02 0.229E+02   -.157E+02 0.301E+02 -.209E+02   0.399E+01 -.705E+01 -.197E+01   -.253E-03 -.303E-03 -.119E-02
   -.517E+01 -.145E+02 -.145E+02   0.656E+01 0.129E+02 0.692E+01   -.140E+01 0.156E+01 0.761E+01   0.156E-02 -.738E-03 0.120E-02
   0.130E+02 -.210E+01 0.183E+01   -.169E+02 -.949E+00 0.336E+01   0.396E+01 0.309E+01 -.522E+01   -.137E-02 -.315E-03 0.220E-03
   0.794E+01 -.955E+01 -.408E+02   -.880E+01 0.476E+01 0.438E+02   0.895E+00 0.476E+01 -.301E+01   -.347E-03 -.122E-02 0.582E-03
   -.130E+02 0.210E+01 -.183E+01   0.169E+02 0.949E+00 -.336E+01   -.396E+01 -.309E+01 0.522E+01   0.137E-02 0.315E-03 -.220E-03
   -.117E+02 0.230E+02 -.229E+02   0.157E+02 -.301E+02 0.209E+02   -.399E+01 0.705E+01 0.197E+01   0.253E-03 0.303E-03 0.119E-02
   0.517E+01 0.145E+02 0.145E+02   -.656E+01 -.129E+02 -.692E+01   0.140E+01 -.156E+01 -.761E+01   -.156E-02 0.738E-03 -.120E-02
   -.794E+01 0.955E+01 0.408E+02   0.880E+01 -.476E+01 -.438E+02   -.895E+00 -.476E+01 0.301E+01   0.347E-03 0.122E-02 -.582E-03
   0.373E+01 0.579E+00 -.219E+02   -.385E+01 -.385E+00 0.236E+02   0.129E+00 -.208E+00 -.167E+01   -.113E-02 -.457E-03 -.404E-03
   -.102E+02 -.334E+02 0.638E+01   0.107E+02 0.351E+02 -.706E+01   -.550E+00 -.170E+01 0.652E+00   -.148E-02 -.161E-02 0.336E-02
   0.225E+02 -.507E+02 -.797E+02   -.233E+02 0.524E+02 0.814E+02   0.728E+00 -.173E+01 -.174E+01   0.202E-02 0.149E-03 -.508E-03
   0.295E+02 -.224E+02 -.327E+02   -.312E+02 0.226E+02 0.336E+02   0.165E+01 -.265E+00 -.848E+00   -.171E-02 -.115E-02 0.277E-02
   0.156E+02 0.506E+02 0.794E+02   -.161E+02 -.519E+02 -.819E+02   0.450E+00 0.124E+01 0.251E+01   0.297E-02 0.678E-03 0.922E-03
   0.102E+02 0.334E+02 -.638E+01   -.107E+02 -.351E+02 0.706E+01   0.550E+00 0.170E+01 -.652E+00   0.148E-02 0.161E-02 -.336E-02
   -.249E+02 -.243E+02 0.483E+02   0.262E+02 0.248E+02 -.492E+02   -.125E+01 -.461E+00 0.885E+00   0.357E-03 -.216E-03 0.556E-03
   -.156E+02 -.506E+02 -.794E+02   0.161E+02 0.519E+02 0.819E+02   -.450E+00 -.124E+01 -.251E+01   -.297E-02 -.678E-03 -.922E-03
   0.249E+02 0.243E+02 -.483E+02   -.262E+02 -.248E+02 0.492E+02   0.125E+01 0.461E+00 -.885E+00   -.357E-03 0.216E-03 -.556E-03
   0.319E+02 -.654E+01 0.638E+02   -.332E+02 0.613E+01 -.652E+02   0.128E+01 0.388E+00 0.136E+01   -.273E-02 0.863E-03 0.856E-03
   -.319E+02 0.654E+01 -.638E+02   0.332E+02 -.613E+01 0.652E+02   -.128E+01 -.388E+00 -.136E+01   0.273E-02 -.863E-03 -.856E-03
   -.295E+02 0.224E+02 0.327E+02   0.312E+02 -.226E+02 -.336E+02   -.165E+01 0.265E+00 0.848E+00   0.171E-02 0.115E-02 -.277E-02
   -.225E+02 0.507E+02 0.797E+02   0.233E+02 -.524E+02 -.814E+02   -.728E+00 0.173E+01 0.174E+01   -.202E-02 -.149E-03 0.508E-03
   -.373E+01 -.579E+00 0.219E+02   0.385E+01 0.385E+00 -.236E+02   -.129E+00 0.208E+00 0.167E+01   0.113E-02 0.457E-03 0.404E-03
   0.467E-11 0.529E-11 0.473E-10   -.258E-13 0.258E-13 -.853E-13   -.999E-15 0.136E-14 -.222E-15   -.326E-12 -.330E-12 -.282E-12

 POSITION                                       TOTAL-FORCE (eV/Angst)
     -1.81316      2.75446     -1.67764        -0.009786     -0.002662      0.002367
     -1.00122      6.64099     -7.68095         0.011686      0.001631     -0.000802
     -4.36116      0.96752     -4.14844        -0.011686     -0.001631      0.000802
     -3.54922      4.85405    -10.15175         0.009786      0.002662     -0.002367
      1.71439      8.16045     -4.27421         0.016961      0.006164     -0.027986
     -0.14812      3.04275     -9.35164        -0.009151     -0.002909      0.033846
     -5.15774      1.03356     -0.62599         0.016409      0.038083     -0.024760
     -3.48507      1.21106     -8.62632         0.035799     -0.027176     -0.005108
     -0.20464      6.57495    -11.20340        -0.016409     -0.038083      0.024760
     -7.07677     -0.55194     -7.55518        -0.016961     -0.006164      0.027986
     -5.21426      4.56576     -2.47776         0.009151      0.002909     -0.033846
     -1.87731      6.39745     -3.20307        -0.035799      0.027176      0.005108
     -4.22908      7.29713     -1.85997         0.010320     -0.014751     -0.012443
     -4.45486      2.14818    -11.00862        -0.005107      0.029390     -0.020924
     -2.40911      3.65500     -8.07604        -0.011466     -0.002747     -0.005871
     -2.16804     -0.13657     -6.10084        -0.014519      0.025131      0.013957
      0.65596      5.68102     -4.61947        -0.044102     -0.003792      0.009537
     -0.90752      5.46033     -0.82078         0.005107     -0.029390      0.020924
     -2.96366      0.32334     -1.98964         0.002870      0.014060     -0.009642
     -6.01833      1.92749     -7.20992         0.044102      0.003792     -0.009537
     -2.39872      7.28517     -9.83975        -0.002870     -0.014060      0.009642
     -6.40110      2.07928     -2.84660         0.008298     -0.018215     -0.006028
      1.03872      5.52923     -8.98280        -0.008298      0.018215      0.006028
     -3.19434      7.74508     -5.72855         0.014519     -0.025131     -0.013957
     -2.95327      3.95351     -3.75336         0.011466      0.002747      0.005871
     -1.13330      0.31138     -9.96943        -0.010320      0.014751      0.012443
    total drift:                                0.000000      0.000000      0.000000

  FREE ENERGIE OF THE ION-ELECTRON SYSTEM (eV)
  free  energy   TOTEN  =      -102.53859742 eV

  energy  without entropy=     -102.53859742  energy(sigma->0) =     -102.53859742

 d Force = 0.1900602E-03[ 0.761E-04, 0.304E-03]  d Energy = 0.1630324E-03 0.270E-04
 d Force = 0.2284143E-01[ 0.227E-01, 0.229E-01]  d Ewald  =-0.4373953E-02 0.272E-01

 Conjugate gradient step on ions:
 trial-energy change:   -0.000163  1 .order   -0.000215   -0.000327   -0.000103
  (g-gl).g = 0.341E-03      g.g   = 0.434E-03  gl.gl    = 0.103E-02
 g(Force)  = 0.402E-03   g(Stress)= 0.315E-04 ortho     =-0.464E-05
 gamma     =   0.32958
 trial     =   0.75580
 opt step  =   1.10268  (harmonic =   1.10268) maximal distance =0.00093732
 next E    =  -102.538673   (d E  =  -0.00024)

 reached required accuracy - stopping structural energy minimisation

 total charge

# of ion       s       p       d       tot
    1        0.064   0.102   0.000   0.165
    2        0.068   0.109   0.000   0.177
    3        0.068   0.109   0.000   0.177
    4        0.064   0.102   0.000   0.165
    5        1.290   0.936   0.056   2.282
    6        1.293   0.935   0.059   2.287
    7        1.308   0.915   0.057   2.280
    8        1.316   0.892   0.057   2.265
    9        1.308   0.915   0.057   2.280
   10        1.290   0.936   0.056   2.282
   11        1.293   0.935   0.059   2.287
   12        1.316   0.892   0.057   2.265
   13        1.479   2.286   0.027   3.792
   14        1.473   2.310   0.023   3.806
   15        1.473   2.312   0.021   3.806
   16        1.472   2.312   0.021   3.805
   17        1.484   2.270   0.025   3.778
   18        1.473   2.310   0.023   3.806
   19        1.467   2.334   0.020   3.821
   20        1.484   2.270   0.025   3.778
   21        1.467   2.334   0.020   3.821
   22        1.470   2.316   0.020   3.806
   23        1.470   2.316   0.020   3.806
   24        1.472   2.312   0.021   3.805
   25        1.473   2.312   0.021   3.806
   26        1.479   2.286   0.027   3.792
tot         31.315  40.056   0.773  72.144