 vasp.5.4.4.18Apr17-6-g9f103f2a35 (build Oct 27 2022 13:04:57) complex

 executed on             LinuxIFC date 2024.07.04  02:08:45

 INCAR:
 POTCAR:    PAW_PBE Li 17Jan2003
 POTCAR:    PAW_PBE Sb 06Sep2000
 POTCAR:    PAW_PBE Se 06Sep2000

 POTCAR:    PAW_PBE Li 17Jan2003
   VRHFIN =Li: s1p0

   TITEL  = PAW_PBE Li 17Jan2003
   POMASS =    7.010; ZVAL   =    1.000    mass and valenz
   ENMAX  =  140.000; ENMIN  =  100.000 eV

 POTCAR:    PAW_PBE Sb 06Sep2000
   VRHFIN =Sb: s2p3

   TITEL  = PAW_PBE Sb 06Sep2000
   POMASS =  121.750; ZVAL   =    5.000    mass and valenz
   ENMAX  =  172.069; ENMIN  =  129.052 eV

 POTCAR:    PAW_PBE Se 06Sep2000
   VRHFIN =Se: s2p4

   TITEL  = PAW_PBE Se 06Sep2000
   POMASS =   78.960; ZVAL   =    6.000    mass and valenz
   ENMAX  =  211.555; ENMIN  =  158.666 eV

 Optimization of the real space projectors (new method)

 maximal supplied QI-value         = 18.33
 optimisation between [QCUT,QGAM] = [  8.80, 17.60] = [ 21.68, 86.71] Ry
 Optimized for a Real-space Cutoff    1.15 Angstroem

   l    n(q)    QCUT    max X(q) W(low)/X(q) W(high)/X(q)  e(spline)
   0      6     8.799    33.825    0.11E-02    0.11E-02    0.82E-07
   0      6     8.799     8.944    0.75E-03    0.85E-03    0.59E-07
   1      5     8.799     4.214    0.92E-03    0.27E-03    0.41E-07
 Optimization of the real space projectors (new method)

[...]

   l    n(q)    QCUT    max X(q) W(low)/X(q) W(high)/X(q)  e(spline)
   0      7     8.776    19.000    0.12E-02    0.42E-03    0.95E-07
   0      7     8.776     9.057    0.14E-02    0.54E-03    0.11E-06
   1      6     8.776   125.345    0.45E-03    0.22E-02    0.77E-07
   1      6     8.776    79.963    0.45E-03    0.21E-02    0.76E-07
   2      6     8.776     6.963    0.11E-02    0.51E-03    0.39E-07
 Optimization of the real space projectors (new method)

 maximal supplied QI-value         = 17.95
 optimisation between [QCUT,QGAM] = [  8.80, 17.59] = [ 21.67, 86.68] Ry
 Optimized for a Real-space Cutoff    1.19 Angstroem

   l    n(q)    QCUT    max X(q) W(low)/X(q) W(high)/X(q)  e(spline)
   0      6     8.797   133.320    0.14E-02    0.11E-02    0.95E-07
   0      6     8.797   111.601    0.15E-02    0.12E-02    0.10E-06
   1      6     8.797    47.222    0.19E-02    0.96E-03    0.11E-06
   1      6     8.797    33.775    0.19E-02    0.99E-03    0.11E-06
   2      5     8.797     3.720    0.16E-02    0.14E-02    0.40E-07
  PAW_PBE Li 17Jan2003                  :
  PAW_PBE Sb 06Sep2000                  :
  PAW_PBE Se 06Sep2000                  :

 POSCAR: Li9 Sb1 Se6
  positions in direct lattice
 exchange correlation table for  LEXCH =        8
   RHO(1)=    0.500       N(1)  =     2000
   RHO(2)=  100.500       N(2)  =     4000

 ion  position               nearest neighbor table
   1  0.993  0.516  0.308-  15 3.02
   2  0.207  0.006  0.692-  12 3.02
   3  0.000  0.000  0.000-
   4  0.315  0.792  0.308-  13 3.02
   5  0.484  0.684  0.691-  16 3.02
   6  0.516  0.316  0.309-  12 3.02
   7  0.685  0.208  0.692-  15 3.02
   8  0.793  0.994  0.308-  16 3.02
   9  0.007  0.484  0.692-  13 3.02
  10  0.500  0.500  0.000-  11 2.91  14 2.91  13 2.95  15 2.95  12 2.95  16 2.95
  11  0.280  0.280  0.558-  10 2.91
  12  0.186  0.354  1.000-  10 2.95   6 3.02   2 3.02
  13  0.355  0.815  1.000-  10 2.95   9 3.02   4 3.02
  14  0.720  0.720  0.442-  10 2.91
  15  0.645  0.185  0.000-  10 2.95   1 3.02   7 3.02
  16  0.814  0.646  0.000-  10 2.95   5 3.02   8 3.02

  LATTYP: Found a triclinic cell.
 ALAT       =     8.9311313994
 B/A-ratio  =     1.3489429812
 C/A-ratio  =     0.9991642712
 COS(alpha) =     0.0003642371
 COS(beta)  =     0.5446447401
 COS(gamma) =     0.6752536543

  Lattice vectors:

 A1 = (   2.1893370000,  -7.2650735300,  -4.7106919000)
 A2 = (   9.7674780400,  -7.0527069100,  -0.0071328800)
 A3 = (  -5.2135346900,  -7.2254127800,  -0.4942731900)

Analysis of symmetry for initial positions (statically):
 Subroutine PRICEL returns:
 Original cell was already a primitive cell.

 Routine SETGRP: Setting up the symmetry group for a
 triclinic supercell.

 Subroutine GETGRP returns: Found  2 space group operations
 (whereof  2 operations were pure point group operations)
 out of a pool of  2 trial point group operations.

The static configuration has the point symmetry S_2 .

Analysis of symmetry for dynamics (positions and initial velocities):
 Subroutine PRICEL returns:
 Original cell was already a primitive cell.

 Routine SETGRP: Setting up the symmetry group for a
 triclinic supercell.

 Subroutine GETGRP returns: Found  2 space group operations
 (whereof  2 operations were pure point group operations)
 out of a pool of  2 trial point group operations.

The dynamic configuration has the point symmetry S_2 .

 Subroutine INISYM returns: Found  2 space group operations
 (whereof  2 operations are pure point group operations),
 and found     1 'primitive' translations

 KPOINTS: pymatgen with grid density = 807 / numbe

Automatic generation of k-mesh.
Space group operators:
 irot       det(A)        alpha          n_x          n_y          n_z        tau_x        tau_y        tau_z
    1     1.000000     0.000000     1.000000     0.000000     0.000000     0.000000     0.000000     0.000000
    2    -1.000000     0.000000     1.000000     0.000000     0.000000     0.000000     0.000000     0.000000

 Subroutine IBZKPT returns following result:

 Found     14 irreducible k-points:

 Following reciprocal coordinates:
            Coordinates               Weight
  0.000000  0.000000  0.000000      1.000000
  0.333333  0.000000 -0.000000      2.000000
  0.000000  0.333333 -0.000000      2.000000
  0.333333  0.333333 -0.000000      2.000000
 -0.333333  0.333333 -0.000000      2.000000
 -0.000000  0.000000  0.333333      2.000000
  0.333333  0.000000  0.333333      2.000000
 -0.333333  0.000000  0.333333      2.000000
  0.000000  0.333333  0.333333      2.000000
  0.333333  0.333333  0.333333      2.000000
 -0.333333  0.333333  0.333333      2.000000
 -0.000000 -0.333333  0.333333      2.000000
  0.333333 -0.333333  0.333333      2.000000
 -0.333333 -0.333333  0.333333      2.000000

 Following cartesian coordinates:
            Coordinates               Weight
  0.000000  0.000000  0.000000      1.000000
  0.044378  0.014199 -0.001273      2.000000
 -0.000495  0.046580 -0.001306      2.000000
  0.043884  0.060779 -0.002580      2.000000
 -0.044873  0.032381 -0.000033      2.000000
  0.020744  0.028692  0.036151      2.000000
  0.065123  0.042891  0.034878      2.000000
 -0.023634  0.014493  0.037424      2.000000
  0.020250  0.075272  0.034845      2.000000
  0.064628  0.089471  0.033571      2.000000
 -0.024129  0.061073  0.036118      2.000000
  0.021239 -0.017887  0.037457      2.000000
  0.065617 -0.003688  0.036184      2.000000
 -0.023140 -0.032086  0.038731      2.000000

 SYSTEM =  CIS
 POSCAR =  Li9 Sb1 Se6

 Startparameter for this run:
   NWRITE =      2    write-flag & timer
   PREC   = medium    normal or accurate (medium, high low for compatibility)
   ISTART =      0    job   : 0-new  1-cont  2-samecut
   ICHARG =      2    charge: 1-file 2-atom 10-const
   ISPIN  =      1    spin polarized calculation?
   LNONCOLLINEAR =      F non collinear calculations
   LSORBIT =      F    spin-orbit coupling
   INIWAV =      1    electr: 0-lowe 1-rand  2-diag
   LASPH  =      T    aspherical Exc in radial PAW
   METAGGA=      F    non-selfconsistent MetaGGA calc.

 Electronic Relaxation 1
   ENCUT  =  300.0 eV  22.05 Ry    4.70 a.u.  12.03 12.02 12.60*2*pi/ulx,y,z
   ENINI  =  300.0     initial cutoff
   ENAUG  =  446.8 eV  augmentation charge cutoff
   NELM   =     60;   NELMIN=  2; NELMDL= -5     # of ELM steps
   EDIFF  = 0.1E-03   stopping-criterion for ELM
   LREAL  =      T    real-space projection
   NLSPLINE    = F    spline interpolate recip. space projectors
   LCOMPAT=      F    compatible to vasp.4.4
   GGA_COMPAT  = T    GGA compatible to vasp.4.4-vasp.4.6
   LMAXPAW     = -100 max onsite density
   LMAXMIX     =    4 max onsite mixed and CHGCAR
   VOSKOWN=      0    Vosko Wilk Nusair interpolation
   ROPT   =   -0.00200  -0.00200  -0.00200
 Ionic relaxation
   EDIFFG = -.5E-01   stopping-criterion for IOM
   NSW    =     99    number of steps for IOM
   NBLOCK =      1;   KBLOCK =     99    inner block; outer block
   IBRION =      2    ionic relax: 0-MD 1-quasi-New 2-CG
   NFREE  =      1    steps in history (QN), initial steepest desc. (CG)
   ISIF   =      3    stress and relaxation
   IWAVPR =     11    prediction:  0-non 1-charg 2-wave 3-comb
   ISYM   =      2    0-nonsym 1-usesym 2-fastsym
   LCORR  =      T    Harris-Foulkes like correction to forces

   POTIM  = 0.1000    time-step for ionic-motion
   TEIN   =    0.0    initial temperature
   TEBEG  =    0.0;   TEEND  =   0.0 temperature during run
   SMASS  =  -3.00    Nose mass-parameter (am)
   estimated Nose-frequenzy (Omega)   =  0.10E-29 period in steps =****** mass=  -0.166E-26a.u.
   SCALEE = 1.0000    scale energy and forces
   NPACO  =    256;   APACO  = 16.0  distance and # of slots for P.C.
   PSTRESS=    0.0 pullay stress

  Mass of Ions in am
   POMASS =   7.01121.75 78.96
  Ionic Valenz
   ZVAL   =   1.00  5.00  6.00
  Atomic Wigner-Seitz radii
  virtual crystal weights
   VCA    =   1.00  1.00  1.00
   NELECT =      50.0000    total number of electrons
   NUPDOWN=      -1.0000    fix difference up-down

 DOS related values:
   EMIN   =  10.00;   EMAX   =-10.00  energy-range for DOS
   EFERMI =   0.00
   ISMEAR =     0;   SIGMA  =   0.05  broadening in eV -4-tet -1-fermi 0-gaus

 Electronic relaxation 2 (details)
   IALGO  =     38    algorithm
   LDIAG  =      T    sub-space diagonalisation (order eigenvalues)
   LSUBROT=      F    optimize rotation matrix (better conditioning)
   TURBO    =      0    0=normal 1=particle mesh
   IRESTART =      0    0=no restart 2=restart with 2 vectors
   NREBOOT  =      0    no. of reboots
   NMIN     =      0    reboot dimension
   EREF     =   0.00    reference energy to select bands
   IMIX   =      4    mixing-type and parameters
     AMIX     =   0.40;   BMIX     =  1.00
     AMIX_MAG =   1.60;   BMIX_MAG =  1.00
     AMIN     =   0.10
     WC   =   100.;   INIMIX=   1;  MIXPRE=   1;  MAXMIX= -45

 Intra band minimization:
   WEIMIN = 0.0010     energy-eigenvalue tresh-hold
   EBREAK =  0.60E-06  absolut break condition
   DEPER  =   0.30     relativ break condition

   TIME   =   0.40     timestep for ELM

  volume/ion in A,a.u.               =      29.86       201.54
  Fermi-wavevector in a.u.,A,eV,Ry     =   0.771445  1.457819  8.097195  0.595127
  Thomas-Fermi vector in A             =   1.872864

 Write flags
   LWAVE        =      F    write WAVECAR
   LDOWNSAMPLE  =      F    k-point downsampling of WAVECAR
   LCHARG       =      F    write CHGCAR
   LVTOT        =      F    write LOCPOT, total local potential
   LVHAR        =      F    write LOCPOT, Hartree potential only
   LELF         =      F    write electronic localiz. function (ELF)
   LORBIT       =     10    0 simple, 1 ext, 2 COOP (PROOUT), +10 PAW based schemes

 Dipole corrections
[...]

  energy  without entropy=      -50.89367568  energy(sigma->0) =      -50.89538780

[...]

 d Force = 0.8254014E-01[ 0.830E-01, 0.821E-01]  d Energy = 0.5533669E+00-0.471E+00
 d Force = 0.5012779E+00[ 0.500E+00, 0.503E+00]  d Ewald  = 0.1300363E+02-0.125E+02

 Steepest descent step on ions:
 trial-energy change:   -0.553367  1 .order   -0.551151   -0.568543   -0.533760
  (g-gl).g = 0.569E+00      g.g   = 0.569E+00  gl.gl    = 0.000E+00
 g(Force)  = 0.830E-01   g(Stress)= 0.486E+00 ortho     = 0.000E+00
 gamma     =   0.00000
 trial     =   1.00000
 opt step  =   4.00000  (harmonic =  16.34565) maximal distance =0.03427796
 next E    =   -55.543698   (d E  =  -4.64660)

[...]

 Conjugate gradient step on ions:
 trial-energy change:   -0.816852  1 .order   -0.826934   -0.951702   -0.702165
  (g-gl).g = 0.341E+00      g.g   = 0.326E+00  gl.gl    = 0.569E+00
 g(Force)  = 0.306E+00   g(Stress)= 0.200E-01 ortho     =-0.148E-01
 gamma     =   0.59993
 trial     =   2.99807
 opt step  =  11.43426  (harmonic =  11.43426) maximal distance =0.21983195
 next E    =   -56.321202   (d E  =  -1.81484)

[...]

 E-fermi :   3.4810     XC(G=0):  -8.5894     alpha+bet :-10.0613

[...]

 d Force =-0.5798573E-01[-0.659E-01,-0.500E-01]  d Energy = 0.1292714E-01-0.709E-01
 d Force =-0.2842963E+01[-0.302E+01,-0.267E+01]  d Ewald  =-0.8026792E+01 0.518E+01

[...]

 d Force = 0.7712581E-01[ 0.349E-01, 0.119E+00]  d Energy = 0.2992360E+00-0.222E+00
 d Force = 0.4953962E+01[ 0.454E+01, 0.537E+01]  d Ewald  =-0.2294935E+02 0.279E+02

 Conjugate gradient step on ions:
 trial-energy change:   -0.299236  1 .order   -0.306321   -0.503989   -0.108653
  (g-gl).g =-0.556E-02      g.g   = 0.111E+00  gl.gl    = 0.326E+00
 g(Force)  = 0.273E-01   g(Stress)= 0.842E-01 ortho     = 0.869E-03
 gamma     =  -0.01702
 trial     =   4.52176
 opt step  =   5.97013  (harmonic =   5.76450) maximal distance =0.03313470
 next E    =   -56.552758   (d E  =  -0.31640)

[...]

 d Force =-0.2705912E-03[-0.287E-03,-0.254E-03]  d Energy = 0.1023503E-03-0.373E-03
 d Force =-0.9304968E-01[-0.932E-01,-0.929E-01]  d Ewald  = 0.5045562E+00-0.598E+00

[...]

 d Force = 0.2236789E-01[ 0.212E-01, 0.235E-01]  d Energy = 0.2262465E-01-0.257E-03
 d Force =-0.5321731E+00[-0.538E+00,-0.526E+00]  d Ewald  =-0.5078124E+00-0.244E-01

[...]

 d Force = 0.3483375E-01[-0.119E-01, 0.816E-01]  d Energy = 0.2545960E-01 0.937E-02
 d Force =-0.3648763E+01[-0.387E+01,-0.343E+01]  d Ewald  =-0.3422988E+01-0.226E+00

[...]

 d Force = 0.1967695E-04[-0.307E-02, 0.311E-02]  d Energy = 0.3305956E-02-0.329E-02
 d Force = 0.9804364E+00[ 0.966E+00, 0.995E+00]  d Ewald  = 0.9087573E+00 0.717E-01

[...]

 d Force = 0.2345836E-01[ 0.184E-01, 0.285E-01]  d Energy = 0.2354607E-01-0.877E-04
 d Force =-0.1386499E+01[-0.144E+01,-0.134E+01]  d Ewald  = 0.7415513E+00-0.213E+01

 Conjugate gradient step on ions:
 trial-energy change:   -0.023546  1 .order   -0.023754   -0.032297   -0.015210
  (g-gl).g = 0.212E-02      g.g   = 0.272E-02  gl.gl    = 0.407E-02
 g(Force)  = 0.211E-02   g(Stress)= 0.611E-03 ortho     = 0.228E-03
 gamma     =   0.52112
 trial     =  11.37441
 opt step  =  21.49926  (harmonic =  21.49926) maximal distance =0.04064262
 next E    =   -56.733427   (d E  =  -0.03052)

[...]

 d Force =-0.4178436E-01[-0.134E+00, 0.502E-01]  d Energy =-0.9692675E-02-0.321E-01
 d Force =-0.1049506E+01[-0.314E+01, 0.104E+01]  d Ewald  = 0.1847229E+01-0.290E+01

[...]

 d Force = 0.1842569E-01[ 0.125E-01, 0.243E-01]  d Energy = 0.2590098E-01-0.748E-02
 d Force =-0.1313985E+01[-0.140E+01,-0.122E+01]  d Ewald  =-0.4137818E+01 0.282E+01

[...]

 d Force =-0.5770312E-02[-0.367E-01, 0.251E-01]  d Energy =-0.5737825E-02-0.325E-04
 d Force =-0.3219247E+01[-0.360E+01,-0.284E+01]  d Ewald  =-0.8837898E+01 0.562E+01

[...]

 d Force =-0.2188658E-02[-0.257E-02,-0.181E-02]  d Energy = 0.2111400E-02-0.430E-02
 d Force = 0.2328116E+00[ 0.230E+00, 0.236E+00]  d Ewald  =-0.1412313E+01 0.165E+01

[...]

 d Force =-0.2111151E-01[-0.282E-01,-0.140E-01]  d Energy = 0.5510445E-02-0.266E-01
 d Force =-0.1587424E+01[-0.160E+01,-0.158E+01]  d Ewald  =-0.7930402E+00-0.794E+00

[...]

 d Force =-0.1085539E+00[-0.347E+00, 0.130E+00]  d Energy =-0.1178760E+00 0.932E-02
 d Force = 0.6108720E+01[ 0.480E+01, 0.741E+01]  d Ewald  = 0.1210521E+02-0.600E+01

[...]

 d Force = 0.9686930E-01[-0.701E-01, 0.264E+00]  d Energy = 0.1275169E+00-0.306E-01
 d Force =-0.5193238E+01[-0.613E+01,-0.426E+01]  d Ewald  =-0.9639291E+01 0.445E+01

[...]

 d Force = 0.9165121E-02[-0.720E-02, 0.255E-01]  d Energy = 0.7000499E-02 0.216E-02
 d Force = 0.3124570E+00[ 0.221E+00, 0.403E+00]  d Ewald  = 0.7882107E+00-0.476E+00

[...]

 d Force = 0.1649621E-01[ 0.820E-02, 0.248E-01]  d Energy = 0.1801507E-01-0.152E-02
 d Force = 0.1738105E+01[ 0.173E+01, 0.175E+01]  d Ewald  =-0.1125320E+01 0.286E+01

[...]

 d Force = 0.9149238E-03[ 0.140E-03, 0.169E-02]  d Energy =-0.2267579E-03 0.114E-02
 d Force = 0.4826714E+00[ 0.482E+00, 0.483E+00]  d Ewald  = 0.9301787E-01 0.390E+00

[...]

 d Force = 0.4421039E-02[ 0.237E-02, 0.647E-02]  d Energy = 0.4699119E-02-0.278E-03
 d Force =-0.1416662E+00[-0.153E+00,-0.130E+00]  d Ewald  = 0.6602810E-01-0.208E+00

[...]

 d Force = 0.3081629E-03[-0.322E-03, 0.938E-03]  d Energy = 0.4144843E-04 0.267E-03
 d Force =-0.6206495E-01[-0.639E-01,-0.603E-01]  d Ewald  = 0.1932672E-01-0.814E-01

[...]

 Conjugate gradient step on ions:
 trial-energy change:   -0.013958  1 .order   -0.014260   -0.021804   -0.006716
  (g-gl).g = 0.972E-03      g.g   = 0.129E-02  gl.gl    = 0.190E-02
 g(Force)  = 0.109E-02   g(Stress)= 0.202E-03 ortho     =-0.120E-03
 gamma     =   0.51208
 trial     =  17.78192
 opt step  =  25.69656  (harmonic =  25.69656) maximal distance =0.05896210
 next E    =   -59.162075   (d E  =  -0.01575)

[...]

 d Force = 0.1326295E-02[ 0.775E-03, 0.188E-02]  d Energy = 0.5630911E-03 0.763E-03
 d Force = 0.2944167E+00[ 0.287E+00, 0.302E+00]  d Ewald  = 0.1267380E+01-0.973E+00

[...]

 eigenvalue-minimisations  :  1568
 total energy-change (2. order) :-0.1094070E-02  (-0.3546302E-02)
 number of electron      49.9999992 magnetization
 augmentation part       -7.4481124 magnetization

[...]

 Broyden mixing:
  rms(total) = 0.33670E-02    rms(broyden)= 0.33670E-02
  rms(prec ) = 0.44081E-02
  weight for this iteration     100.00

 eigenvalues of (default mixing * dielectric matrix)
  average eigenvalue GAMMA=   1.5286
  1.0656  1.8541  1.6662

[...]

--------------------------------------- Iteration     80(   5)  ---------------------------------------

 eigenvalue-minimisations  :   924
 total energy-change (2. order) : 0.1228885E-04  (-0.5008214E-05)
 number of electron      49.9999992 magnetization
 augmentation part       -7.4422663 magnetization

 Free energy of the ion-electron system (eV)
  alpha Z        PSCENC =        58.73792215
  Ewald energy   TEWEN  =     -1571.54082128
  -Hartree energ DENC   =      -269.16521344
  -exchange      EXHF   =         0.00000000
  -V(xc)+E(xc)   XCENC  =       -82.96549535
  PAW double counting   =      2475.73231293    -2290.19198605
  entropy T*S    EENTRO =        -0.00000000
  eigenvalues    EBANDS =      -120.18825662
  atomic energy  EATOM  =      1740.39794420
  Solvation  Ediel_sol  =         0.00000000
  free energy    TOTEN  =       -59.18359346 eV

  energy without entropy =      -59.18359346  energy(sigma->0) =      -59.18359346

 average (electrostatic) potential at core
  the test charge radii are     0.9748  1.1712  1.0808
  (the norm of the test charge is              1.0000)
       1 -27.4651       2 -28.0011       3 -28.0760       4 -27.3893       5 -27.3918
       6 -27.3918       7 -27.3893       8 -28.0011       9 -27.4651      10 -91.0591
      11 -54.8250      12 -54.8410      13 -54.8850      14 -54.8250      15 -54.8850
      16 -54.8410

 E-fermi :   2.1813     XC(G=0):  -8.4475     alpha+bet : -9.6755

[...]

 k-point    14 :      -0.3333   -0.3333    0.3333
  band No.  band energies     occupation
      1     -10.1406      2.00000
      2      -9.5757      2.00000
      3      -9.5347      2.00000
      4      -9.4760      2.00000
      5      -9.4416      2.00000
      6      -9.2913      2.00000
      7      -6.2674      2.00000
      8      -1.5678      2.00000
      9      -1.4712      2.00000
     10      -1.4319      2.00000
     11      -0.8830      2.00000
     12      -0.4618      2.00000
     13      -0.3310      2.00000
     14      -0.2029      2.00000
     15       0.0557      2.00000
     16       0.1749      2.00000
     17       0.5076      2.00000
     18       0.6431      2.00000
     19       0.7822      2.00000
     20       0.8695      2.00000
     21       1.0950      2.00000
     22       1.1748      2.00000
     23       1.2529      2.00000
     24       1.4902      2.00000
     25       1.9505      2.00000
     26       4.1842      0.00000
     27       4.4098      0.00000
     28       4.8255      0.00000
     29       6.1735      0.00000
     30       6.3532      0.00000
     31       6.7584      0.00000
     32       6.9200      0.00000
     33       7.2158      0.00000
     34       7.4857      0.00000
     35       7.5612      0.00000
     36       7.9251      0.00000
     37       8.1042      0.00000
     38       8.3018      0.00000
     39       8.6669      0.00000
     40       8.7272      0.00000
     41       8.8916      0.00000
     42       8.9723      0.00000

 soft charge-density along one line, spin component           1
         0         1         2         3         4         5         6         7         8         9
 total charge-density along one line

------------------------ aborting loop because EDIFF is reached ----------------------------------------

[...]

  FORCE on cell =-STRESS in cart. coord.  units (eV):
  Direction    XX          YY          ZZ          XY          YZ          ZX
  Alpha Z    58.73792    58.73792    58.73792
  Ewald    -521.62815  -522.29175  -527.62364     2.96526   -10.52255     0.81994
  Hartree    88.70124    88.26303    92.19392    -1.27179    -0.68520    -4.25928
  E(xc)    -173.49446  -173.48411  -173.43973    -0.02648     0.02865    -0.05329
  Local    -246.19553  -244.40855  -245.54205    -0.96170     9.89889     5.20627
  n-local   349.65516   349.40884   348.74928     0.36544    -0.74676     0.48641
  augment   -42.25857   -42.18654   -42.32098     0.02518    -0.06792     0.07636
  Kinetic   486.38968   485.87144   489.15753    -0.95027     2.04981    -2.38716
  Fock        0.00000     0.00000     0.00000     0.00000     0.00000     0.00000
  Total      -0.09271    -0.08972    -0.08774     0.14565    -0.04508    -0.11076
  in kB      -0.48420    -0.46861    -0.45825     0.76068    -0.23543    -0.57848

 VOLUME and BASIS-vectors are now :
  energy-cutoff  :      300.00
  volume of cell :      306.77
      direct lattice vectors                 reciprocal lattice vectors
     6.623414111 -0.291023684 -4.096237917     0.156313597  0.056861677  0.004585083
    -2.083932953  6.021817658 -3.634306532     0.005191596  0.165815853 -0.003386095
    -0.292291965  0.169671030  7.860584425     0.083857064  0.106295480  0.128040795

  length of vectors
     7.793168440  7.335751388  7.867846615     0.166397758  0.165931659  0.186346939

 FORCES acting on ions
    electron-ion (+dipol)            ewald-force                    non-local-force                 convergence-correction
   -.227E+01 -.249E+01 0.271E-01   0.220E+01 0.240E+01 -.223E+00   0.714E-01 0.830E-01 0.187E+00   0.540E-05 0.140E-05 0.329E-05
   -.121E+01 0.301E+01 0.473E+01   0.106E+01 -.267E+01 -.419E+01   0.135E+00 -.355E+00 -.546E+00   -.132E-04 -.187E-04 0.623E-04
   0.622E-14 -.268E-14 0.738E-15   0.244E-14 -.444E-14 0.178E-14   -.316E-29 -.158E-28 0.000E+00   -.574E-14 -.800E-14 0.953E-14
   -.140E+01 0.278E+01 -.921E+00   0.143E+01 -.263E+01 0.826E+00   -.211E-01 -.129E+00 0.930E-01   -.188E-04 0.704E-04 -.572E-04
   0.220E+01 0.184E+00 0.264E+01   -.207E+01 -.354E+00 -.257E+01   -.112E+00 0.189E+00 -.814E-01   0.388E-04 -.752E-04 -.128E-04
   -.220E+01 -.184E+00 -.264E+01   0.207E+01 0.354E+00 0.257E+01   0.112E+00 -.189E+00 0.814E-01   -.388E-04 0.752E-04 0.128E-04
   0.140E+01 -.278E+01 0.921E+00   -.143E+01 0.263E+01 -.826E+00   0.211E-01 0.129E+00 -.930E-01   0.188E-04 -.704E-04 0.572E-04
   0.121E+01 -.301E+01 -.473E+01   -.106E+01 0.267E+01 0.419E+01   -.135E+00 0.355E+00 0.546E+00   0.132E-04 0.187E-04 -.623E-04
   0.227E+01 0.249E+01 -.271E-01   -.220E+01 -.240E+01 0.223E+00   -.714E-01 -.830E-01 -.187E+00   -.540E-05 -.140E-05 -.329E-05
   0.569E-12 0.125E-12 -.551E-12   0.213E-13 0.711E-14 0.355E-14   -.434E-25 0.505E-26 -.323E-25   -.102E-12 0.792E-14 -.306E-13
   0.118E+02 -.432E+01 0.148E+02   -.124E+02 0.433E+01 -.151E+02   0.634E+00 -.378E-01 0.272E+00   0.144E-02 0.231E-03 -.186E-03
   0.190E+02 0.754E+01 -.575E+00   -.195E+02 -.807E+01 0.558E+00   0.476E+00 0.540E+00 0.365E-01   0.426E-03 0.315E-03 -.116E-03
   0.229E+01 -.185E+02 -.922E+00   -.245E+01 0.191E+02 0.676E+00   0.132E+00 -.578E+00 0.245E+00   -.542E-03 0.696E-03 -.885E-03
   -.118E+02 0.432E+01 -.148E+02   0.124E+02 -.433E+01 0.151E+02   -.634E+00 0.378E-01 -.272E+00   -.144E-02 -.231E-03 0.186E-03
   -.229E+01 0.185E+02 0.922E+00   0.245E+01 -.191E+02 -.676E+00   -.132E+00 0.578E+00 -.245E+00   0.542E-03 -.696E-03 0.885E-03
   -.190E+02 -.754E+01 0.575E+00   0.195E+02 0.807E+01 -.558E+00   -.476E+00 -.540E+00 -.365E-01   -.426E-03 -.315E-03 0.116E-03
   0.262E-11 0.328E-12 -.843E-11   -.355E-14 0.000E+00 -.755E-14   0.111E-15 -.111E-15 -.555E-16   -.108E-12 -.742E-13 0.118E-12

 POSITION                                       TOTAL-FORCE (eV/Angst)
     -1.09376      2.55287     -0.43847         0.003876     -0.008854     -0.009499
      1.28415     -0.78382      5.32730        -0.015164     -0.011741     -0.000028
     -0.00000      0.00000     -0.00000         0.000000      0.000000     -0.000000
      1.77622      0.15593      2.14926         0.016281      0.014401     -0.001394
      2.19394      4.14352      0.77072         0.017851      0.019526     -0.008918
      2.05325      1.75694     -0.64068        -0.017851     -0.019526      0.008918
      4.55490     -0.27728      1.61508        -0.016281     -0.014401      0.001394
      5.04697      0.66247     -1.56295         0.015164      0.011741      0.000028
     -1.28246      3.63862      4.66475        -0.003876      0.008854      0.009499
      2.26974      2.86540     -3.86527         0.000000      0.000000     -0.000000
      0.60930      2.35427      1.48746        -0.000447     -0.021281     -0.036452
      0.22028      1.40748     -2.41460        -0.006167      0.007884      0.019530
      0.71830      5.36422     -3.77388        -0.021534     -0.031026     -0.002192
      3.63789      3.54620     -1.35742         0.000447      0.021281      0.036452
      3.82118      0.36657     -3.95666         0.021534      0.031026      0.002192
      4.31920      4.32332     -5.31594         0.006167     -0.007884     -0.019530
    total drift:                                0.000000      0.000000     -0.000000

  FREE ENERGIE OF THE ION-ELECTRON SYSTEM (eV)
  free  energy   TOTEN  =       -59.18359346 eV

  energy  without entropy=      -59.18359346  energy(sigma->0) =      -59.18359346

 d Force = 0.1955903E-02[-0.500E-03, 0.441E-02]  d Energy = 0.2459416E-02-0.504E-03
 d Force = 0.1171890E+00[ 0.922E-01, 0.142E+00]  d Ewald  =-0.1341152E+01 0.146E+01

 Conjugate gradient step on ions:
 trial-energy change:   -0.002459  1 .order   -0.002243   -0.005620    0.001134
  (g-gl).g = 0.214E-03      g.g   = 0.254E-03  gl.gl    = 0.620E-03
 g(Force)  = 0.169E-03   g(Stress)= 0.850E-04 ortho     = 0.873E-05
 gamma     =   0.34474
 trial     =  21.87625
 opt step  =  18.20283  (harmonic =  18.20283) maximal distance =0.01541584
 next E    =   -59.183472   (d E  =  -0.00234)

 reached required accuracy - stopping structural energy minimisation

 total charge

# of ion       s       p       d       tot
    1        0.091   0.158   0.000   0.249
    2        0.059   0.098   0.000   0.157
    3        0.076   0.131   0.000   0.207
    4        0.094   0.166   0.000   0.260
    5        0.095   0.168   0.000   0.263
    6        0.095   0.168   0.000   0.263
    7        0.094   0.166   0.000   0.260
    8        0.059   0.098   0.000   0.157
    9        0.091   0.158   0.000   0.249
   10        1.345   0.824   0.058   2.227
   11        1.438   2.431   0.009   3.878
   12        1.437   2.440   0.010   3.887
   13        1.436   2.437   0.009   3.882
   14        1.438   2.431   0.009   3.878
   15        1.436   2.437   0.009   3.882
   16        1.437   2.440   0.010   3.887
tot         10.721  16.753   0.114  27.587