 vasp.5.4.4.18Apr17-6-g9f103f2a35 (build Oct 27 2022 13:04:57) complex

 executed on             LinuxIFC date 2024.07.04  02:01:25

 INCAR:
 POTCAR:    PAW_PBE Li 17Jan2003
 POTCAR:    PAW_PBE Sb 06Sep2000
 POTCAR:    PAW_PBE Se 06Sep2000

 POTCAR:    PAW_PBE Li 17Jan2003
   VRHFIN =Li: s1p0

   TITEL  = PAW_PBE Li 17Jan2003
   POMASS =    7.010; ZVAL   =    1.000    mass and valenz
   ENMAX  =  140.000; ENMIN  =  100.000 eV

 POTCAR:    PAW_PBE Sb 06Sep2000
   VRHFIN =Sb: s2p3

   TITEL  = PAW_PBE Sb 06Sep2000
   POMASS =  121.750; ZVAL   =    5.000    mass and valenz
   ENMAX  =  172.069; ENMIN  =  129.052 eV

 POTCAR:    PAW_PBE Se 06Sep2000
   VRHFIN =Se: s2p4

   TITEL  = PAW_PBE Se 06Sep2000
   POMASS =   78.960; ZVAL   =    6.000    mass and valenz
   ENMAX  =  211.555; ENMIN  =  158.666 eV

 Optimization of the real space projectors (new method)

 maximal supplied QI-value         = 18.33
 optimisation between [QCUT,QGAM] = [  8.80, 17.60] = [ 21.68, 86.71] Ry
 Optimized for a Real-space Cutoff    1.15 Angstroem

   l    n(q)    QCUT    max X(q) W(low)/X(q) W(high)/X(q)  e(spline)
   0      6     8.799    33.825    0.11E-02    0.11E-02    0.82E-07
   0      6     8.799     8.944    0.75E-03    0.85E-03    0.59E-07
   1      5     8.799     4.214    0.92E-03    0.27E-03    0.41E-07
 Optimization of the real space projectors (new method)

[...]

   l    n(q)    QCUT    max X(q) W(low)/X(q) W(high)/X(q)  e(spline)
   0      7     8.776    19.000    0.12E-02    0.42E-03    0.95E-07
   0      7     8.776     9.057    0.14E-02    0.54E-03    0.11E-06
   1      6     8.776   125.345    0.45E-03    0.22E-02    0.77E-07
   1      6     8.776    79.963    0.45E-03    0.21E-02    0.76E-07
   2      6     8.776     6.963    0.11E-02    0.51E-03    0.39E-07
 Optimization of the real space projectors (new method)

 maximal supplied QI-value         = 17.95
 optimisation between [QCUT,QGAM] = [  8.80, 17.59] = [ 21.67, 86.68] Ry
 Optimized for a Real-space Cutoff    1.19 Angstroem

   l    n(q)    QCUT    max X(q) W(low)/X(q) W(high)/X(q)  e(spline)
   0      6     8.797   133.320    0.14E-02    0.11E-02    0.95E-07
   0      6     8.797   111.601    0.15E-02    0.12E-02    0.10E-06
   1      6     8.797    47.222    0.19E-02    0.96E-03    0.11E-06
   1      6     8.797    33.775    0.19E-02    0.99E-03    0.11E-06
   2      5     8.797     3.720    0.16E-02    0.14E-02    0.40E-07
  PAW_PBE Li 17Jan2003                  :
  PAW_PBE Sb 06Sep2000                  :
  PAW_PBE Se 06Sep2000                  :

 POSCAR: Li4 Sb4 Se8
  positions in direct lattice
 exchange correlation table for  LEXCH =        8
   RHO(1)=    0.500       N(1)  =     2000
   RHO(2)=  100.500       N(2)  =     4000

 ion  position               nearest neighbor table
   1  0.517  0.738  0.881-
   2  0.483  0.262  0.119-
   3  0.984  0.737  0.619-
   4  0.016  0.263  0.381-
   5  0.037  0.796  0.121-  11 2.58  16 2.58  14 2.90  12 2.93
   6  0.963  0.204  0.879-  12 2.58  15 2.58  13 2.90  11 2.93
   7  0.463  0.795  0.379-   9 2.58  14 2.58  16 2.90  10 2.93
   8  0.537  0.205  0.621-  10 2.58  13 2.58  15 2.90   9 2.93
   9  0.517  0.186  0.384-   7 2.58   8 2.93
  10  0.483  0.814  0.616-   8 2.58   7 2.93
  11  0.983  0.186  0.115-   5 2.58   6 2.93
  12  0.017  0.814  0.885-   6 2.58   5 2.93
  13  0.932  0.230  0.645-   8 2.58   6 2.90
  14  0.068  0.770  0.355-   7 2.58   5 2.90
  15  0.568  0.231  0.855-   6 2.58   8 2.90
  16  0.432  0.769  0.145-   5 2.58   7 2.90

  LATTYP: Found a triclinic cell.
 ALAT       =     6.5798618772
 B/A-ratio  =     2.2511181413
 C/A-ratio  =     0.9954268990
 COS(alpha) =     0.0001051169
 COS(beta)  =     0.0013766762
 COS(gamma) =     0.5517367503

  Lattice vectors:

 A1 = (   6.4569994200,   0.7907541400,  -0.9881541900)
 A2 = (   6.3097297400,  -0.2637628100, -13.3983006200)
 A3 = (  -0.8651498400,   6.4702543800,  -0.5355658400)

Analysis of symmetry for initial positions (statically):
 Subroutine PRICEL returns:
 Original cell was already a primitive cell.

 Routine SETGRP: Setting up the symmetry group for a
 triclinic supercell.

 Subroutine GETGRP returns: Found  2 space group operations
 (whereof  2 operations were pure point group operations)
 out of a pool of  2 trial point group operations.

The static configuration has the point symmetry S_2 .

Analysis of symmetry for dynamics (positions and initial velocities):
 Subroutine PRICEL returns:
 Original cell was already a primitive cell.

 Routine SETGRP: Setting up the symmetry group for a
 triclinic supercell.

 Subroutine GETGRP returns: Found  2 space group operations
 (whereof  2 operations were pure point group operations)
 out of a pool of  2 trial point group operations.

The dynamic configuration has the point symmetry S_2 .

 Subroutine INISYM returns: Found  2 space group operations
 (whereof  2 operations are pure point group operations),
 and found     1 'primitive' translations

 KPOINTS: pymatgen with grid density = 807 / numbe

Automatic generation of k-mesh.
Space group operators:
 irot       det(A)        alpha          n_x          n_y          n_z        tau_x        tau_y        tau_z
    1     1.000000     0.000000     1.000000     0.000000     0.000000     0.000000     0.000000     0.000000
    2    -1.000000     0.000000     1.000000     0.000000     0.000000     0.000000     0.000000     0.000000

 Subroutine IBZKPT returns following result:

 Found      9 irreducible k-points:

 Following reciprocal coordinates:
            Coordinates               Weight
  0.000000  0.000000  0.250000      2.000000
  0.333333 -0.000000  0.250000      2.000000
 -0.333333 -0.000000  0.250000      2.000000
 -0.000000  0.333333  0.250000      2.000000
  0.333333  0.333333  0.250000      2.000000
 -0.333333  0.333333  0.250000      2.000000
 -0.000000 -0.333333  0.250000      2.000000
  0.333333 -0.333333  0.250000      2.000000
 -0.333333 -0.333333  0.250000      2.000000

 Following cartesian coordinates:
            Coordinates               Weight
  0.002803  0.002025  0.019939      2.000000
  0.053431  0.008698  0.018772      2.000000
 -0.047824 -0.004648  0.021107      2.000000
 -0.003993  0.052287  0.015749      2.000000
  0.046634  0.058960  0.014581      2.000000
 -0.054621  0.045615  0.016917      2.000000
  0.009600 -0.048237  0.024130      2.000000
  0.060228 -0.041564  0.022962      2.000000
 -0.041028 -0.054910  0.025297      2.000000

 SYSTEM =  CIS
 POSCAR =  Li4 Sb4 Se8

 Startparameter for this run:
   NWRITE =      2    write-flag & timer
   PREC   = medium    normal or accurate (medium, high low for compatibility)
   ISTART =      0    job   : 0-new  1-cont  2-samecut
   ICHARG =      2    charge: 1-file 2-atom 10-const
   ISPIN  =      1    spin polarized calculation?
   LNONCOLLINEAR =      F non collinear calculations
   LSORBIT =      F    spin-orbit coupling
   INIWAV =      1    electr: 0-lowe 1-rand  2-diag
   LASPH  =      T    aspherical Exc in radial PAW
   METAGGA=      F    non-selfconsistent MetaGGA calc.

 Electronic Relaxation 1
   ENCUT  =  300.0 eV  22.05 Ry    4.70 a.u.   9.29  9.25 17.59*2*pi/ulx,y,z
   ENINI  =  300.0     initial cutoff
   ENAUG  =  446.8 eV  augmentation charge cutoff
   NELM   =     60;   NELMIN=  2; NELMDL= -5     # of ELM steps
   EDIFF  = 0.1E-03   stopping-criterion for ELM
   LREAL  =      T    real-space projection
   NLSPLINE    = F    spline interpolate recip. space projectors
   LCOMPAT=      F    compatible to vasp.4.4
   GGA_COMPAT  = T    GGA compatible to vasp.4.4-vasp.4.6
   LMAXPAW     = -100 max onsite density
   LMAXMIX     =    4 max onsite mixed and CHGCAR
   VOSKOWN=      0    Vosko Wilk Nusair interpolation
   ROPT   =   -0.00200  -0.00200  -0.00200
 Ionic relaxation
   EDIFFG = -.5E-01   stopping-criterion for IOM
   NSW    =     99    number of steps for IOM
   NBLOCK =      1;   KBLOCK =     99    inner block; outer block
   IBRION =      2    ionic relax: 0-MD 1-quasi-New 2-CG
   NFREE  =      1    steps in history (QN), initial steepest desc. (CG)
   ISIF   =      3    stress and relaxation
   IWAVPR =     11    prediction:  0-non 1-charg 2-wave 3-comb
   ISYM   =      2    0-nonsym 1-usesym 2-fastsym
   LCORR  =      T    Harris-Foulkes like correction to forces

   POTIM  = 0.1000    time-step for ionic-motion
   TEIN   =    0.0    initial temperature
   TEBEG  =    0.0;   TEEND  =   0.0 temperature during run
   SMASS  =  -3.00    Nose mass-parameter (am)
   estimated Nose-frequenzy (Omega)   =  0.10E-29 period in steps =****** mass=  -0.989E-27a.u.
   SCALEE = 1.0000    scale energy and forces
   NPACO  =    256;   APACO  = 16.0  distance and # of slots for P.C.
   PSTRESS=    0.0 pullay stress

  Mass of Ions in am
   POMASS =   7.01121.75 78.96
  Ionic Valenz
   ZVAL   =   1.00  5.00  6.00
  Atomic Wigner-Seitz radii
  virtual crystal weights
   VCA    =   1.00  1.00  1.00
   NELECT =      72.0000    total number of electrons
   NUPDOWN=      -1.0000    fix difference up-down

 DOS related values:
   EMIN   =  10.00;   EMAX   =-10.00  energy-range for DOS
   EFERMI =   0.00
   ISMEAR =     0;   SIGMA  =   0.05  broadening in eV -4-tet -1-fermi 0-gaus

 Electronic relaxation 2 (details)
   IALGO  =     38    algorithm
   LDIAG  =      T    sub-space diagonalisation (order eigenvalues)
   LSUBROT=      F    optimize rotation matrix (better conditioning)
   TURBO    =      0    0=normal 1=particle mesh
   IRESTART =      0    0=no restart 2=restart with 2 vectors
   NREBOOT  =      0    no. of reboots
   NMIN     =      0    reboot dimension
   EREF     =   0.00    reference energy to select bands
   IMIX   =      4    mixing-type and parameters
     AMIX     =   0.40;   BMIX     =  1.00
     AMIX_MAG =   1.60;   BMIX_MAG =  1.00
     AMIN     =   0.10
     WC   =   100.;   INIMIX=   1;  MIXPRE=   1;  MAXMIX= -45

 Intra band minimization:
   WEIMIN = 0.0010     energy-eigenvalue tresh-hold
   EBREAK =  0.45E-06  absolut break condition
   DEPER  =   0.30     relativ break condition

   TIME   =   0.40     timestep for ELM

  volume/ion in A,a.u.               =      33.27       224.55
  Fermi-wavevector in a.u.,A,eV,Ry     =   0.840313  1.587962  9.607437  0.706127
  Thomas-Fermi vector in A             =   1.954675

 Write flags
   LWAVE        =      F    write WAVECAR
   LDOWNSAMPLE  =      F    k-point downsampling of WAVECAR
   LCHARG       =      F    write CHGCAR
   LVTOT        =      F    write LOCPOT, total local potential
   LVHAR        =      F    write LOCPOT, Hartree potential only
   LELF         =      F    write electronic localiz. function (ELF)
   LORBIT       =     10    0 simple, 1 ext, 2 COOP (PROOUT), +10 PAW based schemes

 Dipole corrections
   LMONO  =      F    monopole corrections only (constant potential shift)
   LDIPOL =      F    correct potential (dipole corrections)
   IDIPOL =      0    1-x, 2-y, 3-z, 4-all directions
   EPSILON=  1.0000000 bulk dielectric constant

 Exchange correlation treatment:
   GGA     =    --    GGA type
   VOSKOWN=      0    Vosko Wilk Nusair interpolation
   LHFCALC =     F    Hartree Fock is set to
   LHFONE  =     F    Hartree Fock one center treatment
[...]
 gamma     =   0.87287
 trial     =   3.13265
 opt step  =   5.57169  (harmonic =   7.35498) maximal distance =0.02972526
 next E    =   -63.295122   (d E  =  -0.05881)

[...]

 d Force = 0.8656137E-02[-0.992E-02, 0.272E-01]  d Energy = 0.7831180E-02 0.825E-03
 d Force =-0.2372576E+00[-0.705E+00, 0.230E+00]  d Ewald  = 0.9152888E+00-0.115E+01

[...]

 d Force = 0.9349979E-03[-0.181E-02, 0.368E-02]  d Energy = 0.2880107E-02-0.195E-02
 d Force = 0.1984822E+00[ 0.136E+00, 0.261E+00]  d Ewald  =-0.2219037E+00 0.420E+00

[...]

 d Force = 0.9277132E-02[ 0.801E-02, 0.105E-01]  d Energy = 0.1516805E-01-0.589E-02
 d Force =-0.2380209E+00[-0.268E+00,-0.208E+00]  d Ewald  =-0.1185005E+01 0.947E+00

[...]

 d Force = 0.1065599E-01[ 0.899E-02, 0.123E-01]  d Energy = 0.1173517E-01-0.108E-02
 d Force =-0.1089214E+00[-0.196E+00,-0.222E-01]  d Ewald  = 0.2190658E+01-0.230E+01

[...]

 d Force = 0.1075455E-02[-0.164E-02, 0.379E-02]  d Energy = 0.1622594E-02-0.547E-03
 d Force =-0.5235817E+00[-0.559E+00,-0.489E+00]  d Ewald  =-0.1540565E+01 0.102E+01

[...]

 d Force = 0.1337244E-03[-0.200E-03, 0.467E-03]  d Energy = 0.1264351E-03 0.729E-05
 d Force = 0.1560124E+00[ 0.153E+00, 0.159E+00]  d Ewald  = 0.4454399E+00-0.289E+00

[...]

 d Force =-0.1445635E-05[-0.516E-05, 0.227E-05]  d Energy = 0.2616656E-04-0.276E-04
 d Force =-0.2250035E-01[-0.225E-01,-0.225E-01]  d Ewald  = 0.1073321E+00-0.130E+00

[...]

 d Force = 0.1434433E-04[-0.764E-04, 0.105E-03]  d Energy =-0.2811035E-04 0.425E-04
 d Force = 0.8116826E-01[ 0.810E-01, 0.814E-01]  d Ewald  =-0.1038181E+00 0.185E+00

[...]

 d Force = 0.6188011E-03[-0.470E-04, 0.128E-02]  d Energy = 0.9766203E-03-0.358E-03
 d Force = 0.1252585E+00[ 0.123E+00, 0.128E+00]  d Ewald  = 0.6978135E+00-0.573E+00

[...]

 d Force =-0.1482542E-04[-0.250E-04,-0.468E-05]  d Energy =-0.1686023E-04 0.203E-05
 d Force = 0.1227198E-01[ 0.122E-01, 0.123E-01]  d Ewald  = 0.6965426E-01-0.574E-01

[...]

 d Force = 0.1160300E-03[ 0.113E-03, 0.119E-03]  d Energy = 0.8265185E-04 0.334E-04
 d Force = 0.2531730E-01[ 0.251E-01, 0.255E-01]  d Ewald  = 0.3492349E+00-0.324E+00

[...]

 d Force = 0.1269776E-03[ 0.277E-04, 0.226E-03]  d Energy =-0.3506738E-03 0.478E-03
 d Force = 0.4932539E-01[ 0.484E-01, 0.502E-01]  d Ewald  = 0.6973642E+00-0.648E+00

[...]

 d Force =-0.1305119E-03[-0.239E-03,-0.217E-04]  d Energy = 0.3722590E-03-0.503E-03
 d Force =-0.3788384E-01[-0.384E-01,-0.374E-01]  d Ewald  =-0.5378202E+00 0.500E+00

[...]

 d Force =-0.4171711E-04[-0.368E-04,-0.466E-04]  d Energy =-0.3585513E-04-0.586E-05
 d Force =-0.7511488E-02[-0.753E-02,-0.749E-02]  d Ewald  =-0.1050004E+00 0.975E-01

[...]

 d Force =-0.2106030E-04[-0.385E-04,-0.363E-05]  d Energy =-0.8250659E-05-0.128E-04
 d Force = 0.7496998E-02[ 0.745E-02, 0.755E-02]  d Ewald  =-0.5544777E-01 0.629E-01

[...]

 d Force = 0.1189392E-03[ 0.110E-03, 0.128E-03]  d Energy = 0.1075704E-03 0.114E-04
 d Force = 0.1603487E-01[ 0.158E-01, 0.162E-01]  d Ewald  =-0.2709555E+00 0.287E+00

[...]

 d Force = 0.1965187E-03[ 0.173E-03, 0.220E-03]  d Energy =-0.1001883E-03 0.297E-03
 d Force = 0.3085845E-01[ 0.301E-01, 0.317E-01]  d Ewald  =-0.5425014E+00 0.573E+00

[...]

 d Force =-0.2312801E-04[-0.697E-04, 0.235E-04]  d Energy = 0.7188030E-05-0.303E-04
 d Force =-0.3986258E-02[-0.402E-02,-0.395E-02]  d Ewald  = 0.1491614E-01-0.189E-01

[...]

 eigenvalues of (default mixing * dielectric matrix)
  average eigenvalue GAMMA=   1.2985
  1.1655  1.4314

[...]

 d Force = 0.7827140E-04[-0.207E-03, 0.364E-03]  d Energy =-0.2053388E-03 0.284E-03
 d Force =-0.7255239E-01[-0.731E-01,-0.720E-01]  d Ewald  = 0.1112136E+01-0.118E+01

[...]

 d Force =-0.2843188E-04[-0.477E-04,-0.913E-05]  d Energy = 0.3462856E-04-0.631E-04
 d Force = 0.1968587E-01[ 0.196E-01, 0.197E-01]  d Ewald  =-0.3021927E+00 0.322E+00

[...]

 d Force = 0.4098272E-05[ 0.413E-05, 0.407E-05]  d Energy =-0.5131890E-05 0.923E-05
 d Force = 0.1948680E-02[ 0.195E-02, 0.195E-02]  d Ewald  = 0.8331908E-02-0.638E-02

[...]

 d Force = 0.6203525E-05[-0.239E-05, 0.148E-04]  d Energy =-0.1562234E-04 0.218E-04
 d Force =-0.1039893E-01[-0.104E-01,-0.104E-01]  d Ewald  =-0.5821157E-01 0.478E-01

[...]

 d Force =-0.4095288E-05[-0.966E-05, 0.147E-05]  d Energy = 0.7842576E-05-0.119E-04
 d Force = 0.6386852E-02[ 0.639E-02, 0.639E-02]  d Ewald  = 0.3575019E-01-0.294E-01

[...]

 d Force = 0.1393075E-03[ 0.101E-03, 0.177E-03]  d Energy = 0.1737465E-03-0.344E-04
 d Force =-0.1501177E-01[-0.150E-01,-0.150E-01]  d Ewald  =-0.1238235E-01-0.263E-02

[...]

 d Force = 0.6809300E-04[-0.356E-05, 0.140E-03]  d Energy = 0.9747150E-04-0.294E-04
 d Force =-0.2078626E-01[-0.208E-01,-0.208E-01]  d Ewald  =-0.1716903E-01-0.362E-02

[...]

 d Force = 0.1245109E-03[ 0.922E-04, 0.157E-03]  d Energy = 0.1222242E-03 0.229E-05
 d Force =-0.1543204E-01[-0.155E-01,-0.154E-01]  d Ewald  = 0.9679008E-01-0.112E+00

 Conjugate gradient step on ions:
 trial-energy change:   -0.000122  1 .order   -0.000141   -0.000182   -0.000101
  (g-gl).g = 0.212E-03      g.g   = 0.255E-03  gl.gl    = 0.191E-03
 g(Force)  = 0.242E-03   g(Stress)= 0.131E-04 ortho     = 0.354E-04
 gamma     =   1.11108
 trial     =   0.61919
 opt step  =   1.38417  (harmonic =   1.38417) maximal distance =0.00090747
 next E    =   -63.393303   (d E  =  -0.00020)

[...]

 eigenvalue-minimisations  :   784
 total energy-change (2. order) : 0.5356292E-05  (-0.1235534E-04)
 number of electron      71.9999711 magnetization
 augmentation part      -12.2435705 magnetization

[...]

 d Force = 0.2963667E-04[-0.546E-04, 0.114E-03]  d Energy = 0.1555620E-04 0.141E-04
 d Force =-0.1924631E-01[-0.193E-01,-0.191E-01]  d Ewald  = 0.1194045E+00-0.139E+00

[...]

 d Force = 0.1000645E-04[-0.170E-05, 0.217E-04]  d Energy = 0.1778204E-04-0.778E-05
 d Force = 0.7675907E-02[ 0.766E-02, 0.769E-02]  d Ewald  =-0.4746390E-01 0.551E-01

[...]

 Broyden mixing:
  rms(total) = 0.16115E-02    rms(broyden)= 0.16114E-02
  rms(prec ) = 0.19289E-02
  weight for this iteration     100.00

[...]

--------------------------------------- Iteration     74(   2)  ---------------------------------------

 eigenvalue-minimisations  :   504
 total energy-change (2. order) :-0.2410007E-05  (-0.8046665E-05)
 number of electron      71.9999711 magnetization
 augmentation part      -12.2439125 magnetization

 Free energy of the ion-electron system (eV)
  alpha Z        PSCENC =        82.72052177
  Ewald energy   TEWEN  =     -2568.04339692
  -Hartree energ DENC   =      -304.13974172
  -exchange      EXHF   =         0.00000000
  -V(xc)+E(xc)   XCENC  =      -202.11467920
  PAW double counting   =      3844.69363221    -3497.45603586
  entropy T*S    EENTRO =        -0.00000000
  eigenvalues    EBANDS =       -97.04937956
  atomic energy  EATOM  =      2677.99578058
  Solvation  Ediel_sol  =         0.00000000
  free energy    TOTEN  =       -63.39329871 eV

  energy without entropy =      -63.39329871  energy(sigma->0) =      -63.39329871

 average (electrostatic) potential at core
  the test charge radii are     0.9748  1.1712  1.0808
  (the norm of the test charge is              1.0000)
       1 -26.2017       2 -26.2017       3 -26.2031       4 -26.2031       5 -89.2262
       6 -89.2262       7 -89.2269       8 -89.2269       9 -53.7756      10 -53.7756
      11 -53.7756      12 -53.7756      13 -53.7177      14 -53.7177      15 -53.7172
      16 -53.7172

 E-fermi :   3.9898     XC(G=0):  -9.1259     alpha+bet :-10.0376

[...]

 k-point     9 :      -0.3333   -0.3333    0.2500
  band No.  band energies     occupation
      1      -9.1236      2.00000
      2      -8.9135      2.00000
      3      -8.5537      2.00000
      4      -8.3371      2.00000
      5      -8.3293      2.00000
      6      -8.3089      2.00000
      7      -8.2536      2.00000
      8      -8.1733      2.00000
      9      -5.5684      2.00000
     10      -5.3063      2.00000
     11      -4.9814      2.00000
     12      -4.8446      2.00000
     13      -0.3198      2.00000
     14       0.0787      2.00000
     15       0.4093      2.00000
     16       0.6649      2.00000
     17       0.7621      2.00000
     18       0.7808      2.00000
     19       0.9040      2.00000
     20       0.9458      2.00000
     21       1.2206      2.00000
     22       1.4575      2.00000
     23       1.5543      2.00000
     24       1.7540      2.00000
     25       1.7886      2.00000
     26       1.9552      2.00000
     27       2.2537      2.00000
     28       2.5430      2.00000
     29       2.7456      2.00000
     30       2.9118      2.00000
     31       2.9662      2.00000
     32       3.0090      2.00000
     33       3.2659      2.00000
     34       3.3212      2.00000
     35       3.4161      2.00000
     36       3.5832      2.00000
     37       5.6571      0.00000
     38       5.7469      0.00000
     39       5.7974      0.00000
     40       5.8979      0.00000
     41       6.0630      0.00000
     42       6.0697      0.00000
     43       6.4682      0.00000
     44       6.5117      0.00000
     45       6.5793      0.00000
     46       6.7520      0.00000
     47       7.0554      0.00000
     48       7.1578      0.00000
     49       9.1608      0.00000
     50       9.2471      0.00000
     51       9.2732      0.00000
     52       9.4621      0.00000
     53       9.7165      0.00000
     54       9.7880      0.00000
     55       9.9993      0.00000
     56      10.0519      0.00000

 soft charge-density along one line, spin component           1
         0         1         2         3         4         5         6         7         8         9
 total charge-density along one line

------------------------ aborting loop because EDIFF is reached ----------------------------------------

[...]

  FORCE on cell =-STRESS in cart. coord.  units (eV):
  Direction    XX          YY          ZZ          XY          YZ          ZX
  Alpha Z    82.72052    82.72052    82.72052
  Ewald    -843.79756  -843.59054  -880.66134    -0.26640    -4.21263    -2.80037
  Hartree    99.69259    99.81205   104.59529    -0.07123    -0.33331     0.46053
  E(xc)    -265.95490  -265.92141  -265.43959     0.00179     0.05179     0.03843
  Local    -347.98245  -347.80966  -315.86561     0.30384     4.57872     2.17260
  n-local   672.59950   671.97110   663.64220     0.00457    -0.51288    -0.53715
  augment  -103.68644  -103.60311  -102.23167     0.00469     0.15505     0.10726
  Kinetic   706.52925   706.33227   713.03234    -0.01786     0.29442     0.57532
  Fock        0.00000     0.00000     0.00000     0.00000     0.00000     0.00000
  Total       0.12051    -0.08878    -0.20785    -0.04061     0.02116     0.01662
  in kB       0.51857    -0.38204    -0.89444    -0.17476     0.09106     0.07152

 VOLUME and BASIS-vectors are now :
  energy-cutoff  :      300.00
  volume of cell :      372.32
      direct lattice vectors                 reciprocal lattice vectors
     5.567498255  0.708936849 -0.495303142     0.175395303  0.022255901 -0.015564058
    -0.747190966  5.571864033 -0.452769542    -0.023616668  0.175100159 -0.014841014
     0.891693870  1.106018336 11.630280241     0.006550224  0.007764511  0.084741854

  length of vectors
     5.634266011  5.639943564 11.716732181     0.177485429  0.177307835  0.085348550

 FORCES acting on ions
    electron-ion (+dipol)            ewald-force                    non-local-force                 convergence-correction
   0.225E+00 0.917E-01 0.666E+00   -.199E+00 -.908E-01 -.604E+00   -.391E-01 -.326E-02 -.560E-01   -.992E-04 -.853E-04 -.232E-03
   -.225E+00 -.917E-01 -.666E+00   0.199E+00 0.908E-01 0.604E+00   0.391E-01 0.326E-02 0.560E-01   0.992E-04 0.853E-04 0.232E-03
   -.268E+00 -.602E-01 -.520E+00   0.231E+00 0.616E-01 0.468E+00   0.518E-01 0.392E-03 0.430E-01   0.116E-03 -.954E-04 0.217E-04
   0.268E+00 0.602E-01 0.520E+00   -.231E+00 -.616E-01 -.468E+00   -.518E-01 -.392E-03 -.430E-01   -.116E-03 0.954E-04 -.217E-04
   -.431E-01 0.320E+00 -.202E+01   -.927E-01 -.547E+00 0.250E+01   0.174E+00 0.234E+00 -.464E+00   -.967E-03 -.535E-03 -.665E-03
   0.431E-01 -.320E+00 0.202E+01   0.927E-01 0.547E+00 -.250E+01   -.174E+00 -.234E+00 0.464E+00   0.967E-03 0.535E-03 0.665E-03
   0.311E+00 -.291E+00 0.178E+01   -.562E+00 0.475E+00 -.224E+01   0.253E+00 -.208E+00 0.429E+00   0.895E-03 -.728E-03 0.166E-02
   -.311E+00 0.291E+00 -.178E+01   0.562E+00 -.475E+00 0.224E+01   -.253E+00 0.208E+00 -.429E+00   -.895E-03 0.728E-03 -.166E-02
   0.148E+01 0.323E+01 0.232E+02   -.154E+01 -.339E+01 -.243E+02   0.431E-01 0.153E+00 0.104E+01   0.181E-02 0.224E-02 -.251E-03
   -.148E+01 -.323E+01 -.232E+02   0.154E+01 0.339E+01 0.243E+02   -.431E-01 -.153E+00 -.104E+01   -.181E-02 -.224E-02 0.251E-03
   -.138E+01 -.326E+01 -.235E+02   0.143E+01 0.341E+01 0.246E+02   -.260E-01 -.149E+00 -.104E+01   -.170E-02 -.158E-03 -.115E-02
   0.138E+01 0.326E+01 0.235E+02   -.143E+01 -.341E+01 -.246E+02   0.260E-01 0.149E+00 0.104E+01   0.170E-02 0.158E-03 0.115E-02
   0.191E+01 0.205E+01 0.188E+02   -.203E+01 -.215E+01 -.197E+02   0.154E+00 0.993E-01 0.850E+00   0.126E-02 0.201E-02 0.480E-03
   -.191E+01 -.205E+01 -.188E+02   0.203E+01 0.215E+01 0.197E+02   -.154E+00 -.993E-01 -.850E+00   -.126E-02 -.201E-02 -.480E-03
   -.768E+00 -.191E+01 -.185E+02   0.781E+00 0.199E+01 0.193E+02   -.120E-01 -.946E-01 -.872E+00   -.179E-02 0.311E-03 -.135E-02
   0.768E+00 0.191E+01 0.185E+02   -.781E+00 -.199E+01 -.193E+02   0.120E-01 0.946E-01 0.872E+00   0.179E-02 -.311E-03 0.135E-02
   0.885E-12 0.336E-11 0.336E-10   -.366E-14 -.244E-14 0.213E-13   0.000E+00 -.139E-16 -.444E-15   0.231E-13 0.637E-13 0.953E-13

 POSITION                                       TOTAL-FORCE (eV/Angst)
      3.02109      5.50283      9.62071        -0.012983     -0.002444      0.005094
      2.69091      1.88398      1.06150         0.012983      0.002444     -0.005094
      5.54318      5.57704      6.41047         0.015248      0.001706     -0.008111
      0.16882      1.80978      4.27174        -0.015248     -0.001706      0.008111
     -0.44151      4.33021      1.09368         0.037392      0.006773      0.012458
      6.15351      3.05661      9.58852        -0.037392     -0.006773     -0.012458
      2.57199      4.93879      3.79156         0.001834     -0.024657     -0.026620
      3.14002      2.44803      6.89065        -0.001834      0.024657      0.026620
      2.93537      2.16430      4.01876        -0.013747     -0.003882     -0.004342
      2.77663      5.22252      6.66345         0.013747      0.003882      0.004342
      5.48773      2.23935      0.82709         0.012787      0.003154      0.007590
      0.22427      5.14747      9.85512        -0.012787     -0.003154     -0.007590
      0.36915      2.08308      7.16222         0.034096      0.000168     -0.015146
     -0.22465      4.59480      4.01529        -0.034096     -0.000168      0.015146
      3.37628      2.71464      9.81286        -0.000838     -0.010965     -0.003455
      2.33572      4.67218      0.86935         0.000838      0.010965      0.003455
    total drift:                                0.000000      0.000000      0.000000

  FREE ENERGIE OF THE ION-ELECTRON SYSTEM (eV)
  free  energy   TOTEN  =       -63.39329871 eV

  energy  without entropy=      -63.39329871  energy(sigma->0) =      -63.39329871

 d Force = 0.7946157E-04[-0.413E-05, 0.163E-03]  d Energy = 0.4352736E-04 0.359E-04
 d Force =-0.1178819E-01[-0.119E-01,-0.117E-01]  d Ewald  = 0.1022595E+00-0.114E+00

 Conjugate gradient step on ions:
 trial-energy change:   -0.000044  1 .order   -0.000066   -0.000151    0.000019
  (g-gl).g = 0.206E-03      g.g   = 0.240E-03  gl.gl    = 0.255E-03
 g(Force)  = 0.225E-03   g(Stress)= 0.158E-04 ortho     =-0.344E-04
 gamma     =   0.80677
 trial     =   0.71134
 opt step  =   0.63143  (harmonic =   0.63143) maximal distance =0.00042764
 next E    =   -63.393322   (d E  =  -0.00007)

 reached required accuracy - stopping structural energy minimisation

 total charge

# of ion       s       p       d       tot
    1        0.061   0.098   0.000   0.160
    2        0.061   0.098   0.000   0.160
    3        0.061   0.098   0.000   0.160
    4        0.061   0.098   0.000   0.160
    5        1.290   0.925   0.059   2.274
    6        1.290   0.925   0.059   2.274
    7        1.290   0.925   0.059   2.274
    8        1.290   0.925   0.059   2.274
    9        1.472   2.325   0.024   3.820
   10        1.472   2.325   0.024   3.820
   11        1.472   2.326   0.024   3.821
   12        1.472   2.326   0.024   3.821
   13        1.471   2.327   0.023   3.820
   14        1.471   2.327   0.023   3.820
   15        1.471   2.327   0.023   3.820
   16        1.471   2.327   0.023   3.820
tot         17.175  22.702   0.422  40.299