 vasp.5.4.4.18Apr17-6-g9f103f2a35 (build Oct 27 2022 13:04:57) complex

 executed on             LinuxIFC date 2024.06.30  17:38:31

 INCAR:
 POTCAR:    PAW_PBE Ag 02Apr2005
 POTCAR:    PAW_PBE Sb 06Sep2000
 POTCAR:    PAW_PBE S 06Sep2000

 POTCAR:    PAW_PBE Ag 02Apr2005
   VRHFIN =Ag : s1 d10

   TITEL  = PAW_PBE Ag 02Apr2005
   POMASS =  107.868; ZVAL   =   11.000    mass and valenz
   ENMAX  =  249.844; ENMIN  =  187.383 eV

 POTCAR:    PAW_PBE Sb 06Sep2000
   VRHFIN =Sb: s2p3

   TITEL  = PAW_PBE Sb 06Sep2000
   POMASS =  121.750; ZVAL   =    5.000    mass and valenz
   ENMAX  =  172.069; ENMIN  =  129.052 eV

 POTCAR:    PAW_PBE S 06Sep2000
   VRHFIN =S : s2p4

   TITEL  = PAW_PBE S 06Sep2000
   POMASS =   32.066; ZVAL   =    6.000    mass and valenz
   ENMAX  =  258.689; ENMIN  =  194.016 eV

 Optimization of the real space projectors (new method)

 maximal supplied QI-value         = 15.12
 optimisation between [QCUT,QGAM] = [  8.77, 17.69] = [ 21.53, 87.61] Ry
 Optimized for a Real-space Cutoff    1.46 Angstroem

   l    n(q)    QCUT    max X(q) W(low)/X(q) W(high)/X(q)  e(spline)
   2      7     8.768    53.897    0.18E-02    0.11E-02    0.15E-06
   2      7     8.768    52.416    0.19E-02    0.12E-02    0.16E-06
   0      8     8.768   122.045    0.58E-03    0.25E-03    0.70E-07
   0      8     8.768    73.629    0.56E-03    0.24E-03    0.68E-07
   1      7     8.768    15.255    0.31E-03    0.18E-03    0.57E-07
   1      7     8.768     9.562    0.25E-03    0.16E-03    0.48E-07
 Optimization of the real space projectors (new method)

[...]

   l    n(q)    QCUT    max X(q) W(low)/X(q) W(high)/X(q)  e(spline)
   0      7     8.776    19.000    0.12E-02    0.42E-03    0.95E-07
   0      7     8.776     9.057    0.14E-02    0.54E-03    0.11E-06
   1      6     8.776   125.345    0.45E-03    0.22E-02    0.77E-07
   1      6     8.776    79.963    0.45E-03    0.21E-02    0.76E-07
   2      6     8.776     6.963    0.11E-02    0.51E-03    0.39E-07
 Optimization of the real space projectors (new method)

 maximal supplied QI-value         = 19.84
 optimisation between [QCUT,QGAM] = [  8.73, 17.66] = [ 21.34, 87.33] Ry
 Optimized for a Real-space Cutoff    1.22 Angstroem

   l    n(q)    QCUT    max X(q) W(low)/X(q) W(high)/X(q)  e(spline)
   0      6     8.731   187.594    0.15E-02    0.56E-03    0.90E-07
   0      6     8.731   164.243    0.15E-02    0.56E-03    0.89E-07
   1      6     8.731    67.533    0.37E-03    0.20E-02    0.11E-06
   1      6     8.731    50.729    0.36E-03    0.19E-02    0.10E-06
  PAW_PBE Ag 02Apr2005                  :
  PAW_PBE Sb 06Sep2000                  :
  PAW_PBE S 06Sep2000                   :

 POSCAR: Ag4 Sb8 S14
  positions in direct lattice
  velocities in cartesian coordinates
 exchange correlation table for  LEXCH =        8
   RHO(1)=    0.500       N(1)  =     2000
   RHO(2)=  100.500       N(2)  =     4000

 ion  position               nearest neighbor table
   1  0.091  0.572  0.211-  21 2.52  26 2.54  25 2.65  18 2.71
   2  0.428  0.909  0.289-  14 2.52  22 2.54  13 2.65  18 2.71
   3  0.909  0.428  0.789-  19 2.52  23 2.54  16 2.65  17 2.71
   4  0.572  0.091  0.711-  20 2.52  24 2.54  15 2.65  17 2.71
   5  0.653  0.691  0.024-  26 2.48  25 2.52  14 2.71  23 2.79  10 3.68
   6  0.691  0.653  0.524-  24 2.48  15 2.52  19 2.71  22 2.79  11 3.68
   7  0.347  0.309  0.976-  23 2.48  16 2.52  20 2.71  26 2.79  12 3.68
   8  0.309  0.347  0.476-  22 2.48  13 2.52  21 2.71  24 2.79   9 3.68
   9  0.119  0.904  0.606-  15 2.49  19 2.49  17 2.55  22 3.15   8 3.68
  10  0.096  0.881  0.894-  16 2.49  20 2.49  17 2.55  26 3.15   5 3.68
  11  0.881  0.096  0.394-  13 2.49  21 2.49  18 2.55  24 3.15   6 3.68
  12  0.904  0.119  0.106-  25 2.49  14 2.49  18 2.55  23 3.15   7 3.68
  13  0.537  0.222  0.343-  11 2.49   8 2.52   2 2.65
  14  0.575  0.987  0.132-  12 2.49   2 2.52   5 2.71
  15  0.463  0.778  0.657-   9 2.49   6 2.52   4 2.65
  16  0.222  0.537  0.843-  10 2.49   7 2.52   3 2.65
  17  0.961  0.039  0.750-   9 2.55  10 2.55   3 2.71   4 2.71
  18  0.039  0.961  0.250-  11 2.55  12 2.55   1 2.71   2 2.71
  19  0.987  0.575  0.632-   9 2.49   3 2.52   6 2.71
  20  0.425  0.013  0.868-  10 2.49   4 2.52   7 2.71
  21  0.013  0.425  0.368-  11 2.49   1 2.52   8 2.71
  22  0.345  0.712  0.438-   8 2.48   2 2.54   6 2.79   9 3.15
  23  0.712  0.345  0.938-   7 2.48   3 2.54   5 2.79  12 3.15
  24  0.655  0.288  0.562-   6 2.48   4 2.54   8 2.79  11 3.15
  25  0.778  0.463  0.157-  12 2.49   5 2.52   1 2.65
  26  0.288  0.655  0.062-   5 2.48   1 2.54   7 2.79  10 3.15

  LATTYP: Found a base centered monoclinic cell.
 ALAT       =    10.3901872339
 B/A-ratio  =     0.8150595290
 C/A-ratio  =     2.7216994866
 COS(beta)  =    -0.6513102594

  Lattice vectors:

 A1 = (  -4.2343105567,   5.1880453460,   0.2705238929)
 A2 = (   4.2343105567,   5.1880453460,   0.2705238929)
 A3 = (   0.0000000000, -22.9306254003, -16.5495138313)

Analysis of symmetry for initial positions (statically):
 Subroutine PRICEL returns:
 Original cell was already a primitive cell.

 Routine SETGRP: Setting up the symmetry group for a
 base centered monoclinic supercell.

 Subroutine GETGRP returns: Found  4 space group operations
 (whereof  2 operations were pure point group operations)
 out of a pool of  4 trial point group operations.

The static configuration has the point symmetry S_2 .
 The point group associated with its full space group is C_2h.

Analysis of symmetry for dynamics (positions and initial velocities):
 Subroutine PRICEL returns:
 Original cell was already a primitive cell.

 Routine SETGRP: Setting up the symmetry group for a
 base centered monoclinic supercell.

 Subroutine GETGRP returns: Found  4 space group operations
 (whereof  2 operations were pure point group operations)
 out of a pool of  4 trial point group operations.

The dynamic configuration has the point symmetry S_2 .
 The point group associated with its full space group is C_2h.

 Subroutine INISYM returns: Found  4 space group operations
 (whereof  2 operations are pure point group operations),
 and found     1 'primitive' translations

 KPOINTS: pymatgen with grid density = 807 / numbe

Automatic generation of k-mesh.
Space group operators:
 irot       det(A)        alpha          n_x          n_y          n_z        tau_x        tau_y        tau_z
    1     1.000000     0.000001     1.000000     0.000000     0.000000     0.000000     0.000000     0.000000
    2    -1.000000     0.000001     1.000000     0.000000     0.000000     0.000000     0.000000     0.000000
    3     1.000000   180.000000     1.000000     0.000000     0.000000    -1.000000    -1.000000    -0.500000
    4    -1.000000   180.000000     1.000000     0.000000     0.000000    -1.000000    -1.000000    -0.500000

 Subroutine IBZKPT returns following result:

 Found      6 irreducible k-points:

 Following reciprocal coordinates:
            Coordinates               Weight
 -0.000000 -0.000000  0.250000      2.000000
  0.333333 -0.000000  0.250000      4.000000
 -0.333333 -0.000000  0.250000      4.000000
  0.333333  0.333333  0.250000      2.000000
 -0.333333  0.333333  0.250000      4.000000
 -0.333333 -0.333333  0.250000      2.000000

 Following cartesian coordinates:
            Coordinates               Weight
  0.000000 -0.000849  0.016283      2.000000
  0.039361  0.031514  0.011725      4.000000
 -0.039361 -0.033212  0.020841      4.000000
  0.000000  0.063877  0.007167      2.000000
 -0.078722 -0.000849  0.016283      4.000000
  0.000000 -0.065575  0.025399      2.000000

 SYSTEM =  CIS
 POSCAR =  Ag4 Sb8 S14

 Startparameter for this run:
   NWRITE =      2    write-flag & timer
   PREC   = medium    normal or accurate (medium, high low for compatibility)
   ISTART =      0    job   : 0-new  1-cont  2-samecut
   ICHARG =      2    charge: 1-file 2-atom 10-const
   ISPIN  =      1    spin polarized calculation?
   LNONCOLLINEAR =      F non collinear calculations
   LSORBIT =      F    spin-orbit coupling
   INIWAV =      1    electr: 0-lowe 1-rand  2-diag
   LASPH  =      T    aspherical Exc in radial PAW
   METAGGA=      F    non-selfconsistent MetaGGA calc.

 Electronic Relaxation 1
   ENCUT  =  300.0 eV  22.05 Ry    4.70 a.u.   9.47  9.47 22.06*2*pi/ulx,y,z
   ENINI  =  300.0     initial cutoff
   ENAUG  =  412.5 eV  augmentation charge cutoff
   NELM   =     60;   NELMIN=  2; NELMDL= -5     # of ELM steps
   EDIFF  = 0.1E-03   stopping-criterion for ELM
   LREAL  =      T    real-space projection
   NLSPLINE    = F    spline interpolate recip. space projectors
   LCOMPAT=      F    compatible to vasp.4.4
   GGA_COMPAT  = T    GGA compatible to vasp.4.4-vasp.4.6
   LMAXPAW     = -100 max onsite density
   LMAXMIX     =    4 max onsite mixed and CHGCAR
   VOSKOWN=      0    Vosko Wilk Nusair interpolation
   ROPT   =   -0.00200  -0.00200  -0.00200
 Ionic relaxation
   EDIFFG = -.5E-01   stopping-criterion for IOM
   NSW    =     99    number of steps for IOM
   NBLOCK =      1;   KBLOCK =     99    inner block; outer block
   IBRION =      2    ionic relax: 0-MD 1-quasi-New 2-CG
   NFREE  =      1    steps in history (QN), initial steepest desc. (CG)
   ISIF   =      3    stress and relaxation
   IWAVPR =     11    prediction:  0-non 1-charg 2-wave 3-comb
   ISYM   =      2    0-nonsym 1-usesym 2-fastsym
   LCORR  =      T    Harris-Foulkes like correction to forces

   POTIM  = 0.1000    time-step for ionic-motion
   TEIN   =    0.0    initial temperature
   TEBEG  =    0.0;   TEEND  =   0.0 temperature during run
   SMASS  =  -3.00    Nose mass-parameter (am)
   estimated Nose-frequenzy (Omega)   =  0.10E-29 period in steps =****** mass=  -0.103E-26a.u.
   SCALEE = 1.0000    scale energy and forces
   NPACO  =    256;   APACO  = 16.0  distance and # of slots for P.C.
   PSTRESS=    0.0 pullay stress

  Mass of Ions in am
   POMASS = 107.87121.75 32.07
  Ionic Valenz
   ZVAL   =  11.00  5.00  6.00
  Atomic Wigner-Seitz radii
  virtual crystal weights
   VCA    =   1.00  1.00  1.00
   NELECT =     168.0000    total number of electrons
   NUPDOWN=      -1.0000    fix difference up-down

 DOS related values:
   EMIN   =  10.00;   EMAX   =-10.00  energy-range for DOS
   EFERMI =   0.00
   ISMEAR =     0;   SIGMA  =   0.05  broadening in eV -4-tet -1-fermi 0-gaus

 Electronic relaxation 2 (details)
   IALGO  =     38    algorithm
   LDIAG  =      T    sub-space diagonalisation (order eigenvalues)
   LSUBROT=      F    optimize rotation matrix (better conditioning)
   TURBO    =      0    0=normal 1=particle mesh
   IRESTART =      0    0=no restart 2=restart with 2 vectors
   NREBOOT  =      0    no. of reboots
   NMIN     =      0    reboot dimension
   EREF     =   0.00    reference energy to select bands
   IMIX   =      4    mixing-type and parameters
     AMIX     =   0.40;   BMIX     =  1.00
     AMIX_MAG =   1.60;   BMIX_MAG =  1.00
     AMIN     =   0.10
     WC   =   100.;   INIMIX=   1;  MIXPRE=   1;  MAXMIX= -45

 Intra band minimization:
   WEIMIN = 0.0010     energy-eigenvalue tresh-hold
   EBREAK =  0.22E-06  absolut break condition
   DEPER  =   0.30     relativ break condition

[...]
 d Force =-0.5671479E-01[-0.567E-01,-0.567E-01]  d Ewald  =-0.2429504E+00 0.186E+00

[...]

 d Force = 0.4618159E-03[ 0.156E-03, 0.768E-03]  d Energy = 0.9467517E-03-0.485E-03
 d Force = 0.3579189E+00[ 0.357E+00, 0.359E+00]  d Ewald  = 0.7426906E+00-0.385E+00

[...]

 d Force =-0.1236321E-02[-0.278E-02, 0.311E-03]  d Energy =-0.1895557E-03-0.105E-02
 d Force = 0.7081252E+00[ 0.703E+00, 0.713E+00]  d Ewald  = 0.1479612E+01-0.771E+00

[...]

 d Force =-0.6077863E-04[-0.395E-03, 0.274E-03]  d Energy = 0.1412550E-03-0.202E-03
 d Force = 0.1395544E+00[ 0.139E+00, 0.140E+00]  d Ewald  = 0.2331856E+00-0.936E-01

[...]

 d Force = 0.8380997E-04[-0.147E-05, 0.169E-03]  d Energy = 0.5720494E-04 0.266E-04
 d Force =-0.5956392E-01[-0.597E-01,-0.595E-01]  d Ewald  =-0.9959000E-01 0.400E-01

[...]

 d Force = 0.3511414E-03[ 0.422E-04, 0.660E-03]  d Energy = 0.5616012E-03-0.210E-03
 d Force =-0.5147783E-01[-0.519E-01,-0.510E-01]  d Ewald  =-0.7619062E+00 0.710E+00

 Conjugate gradient step on ions:
 trial-energy change:   -0.000562  1 .order   -0.000509   -0.000779   -0.000240
  (g-gl).g = 0.155E-02      g.g   = 0.164E-02  gl.gl    = 0.110E-02
 g(Force)  = 0.120E-02   g(Stress)= 0.445E-03 ortho     =-0.168E-03
 gamma     =   1.40776
 trial     =   0.55466
 opt step  =   0.80167  (harmonic =   0.80167) maximal distance =0.00106354
 next E    =  -106.695952   (d E  =  -0.00056)

[...]

 d Force =-0.1521815E-04[-0.492E-04, 0.188E-04]  d Energy = 0.6543960E-04-0.807E-04
 d Force =-0.2322094E-01[-0.233E-01,-0.231E-01]  d Ewald  =-0.3396359E+00 0.316E+00

[...]

 Conjugate gradient step on ions:
 trial-energy change:   -0.000516  1 .order   -0.000511   -0.000703   -0.000318
  (g-gl).g = 0.278E-03      g.g   = 0.116E-02  gl.gl    = 0.164E-02
 g(Force)  = 0.776E-03   g(Stress)= 0.381E-03 ortho     = 0.436E-04
 gamma     =   0.16937
 trial     =   0.60406
 opt step  =   1.10315  (harmonic =   1.10315) maximal distance =0.00097369
 next E    =  -106.696658   (d E  =  -0.00064)

[...]

 d Force = 0.1317881E-03[ 0.121E-03, 0.143E-03]  d Energy = 0.2088059E-03-0.770E-04
 d Force = 0.8085123E-01[ 0.807E-01, 0.810E-01]  d Ewald  =-0.4114020E+00 0.492E+00

[...]

 eigenvalues of (default mixing * dielectric matrix)
  average eigenvalue GAMMA=   0.8491
  0.8491

[...]

 d Force =-0.1629312E-04[-0.275E-03, 0.242E-03]  d Energy =-0.1662165E-03 0.150E-03
 d Force = 0.1611286E+00[ 0.161E+00, 0.162E+00]  d Ewald  =-0.8231993E+00 0.984E+00

[...]

 eigenvalue-minimisations  :  1512
 total energy-change (2. order) :-0.8092740E-04  (-0.1406195E-03)
 number of electron     168.0001183 magnetization
 augmentation part        3.3190348 magnetization

[...]

 d Force = 0.6279791E-04[ 0.653E-04, 0.603E-04]  d Energy = 0.8062614E-04-0.178E-04
 d Force =-0.4835672E-01[-0.484E-01,-0.483E-01]  d Ewald  = 0.2471716E+00-0.296E+00

[...]

 Broyden mixing:
  rms(total) = 0.20292E-02    rms(broyden)= 0.20289E-02
  rms(prec ) = 0.22642E-02
  weight for this iteration     100.00

[...]

--------------------------------------- Iteration     65(   2)  ---------------------------------------

 eigenvalue-minimisations  :   672
 total energy-change (2. order) : 0.6605791E-05  (-0.3166498E-05)
 number of electron     168.0001182 magnetization
 augmentation part        3.3197195 magnetization

 Free energy of the ion-electron system (eV)
  alpha Z        PSCENC =       141.32219212
  Ewald energy   TEWEN  =     -7411.60107212
  -Hartree energ DENC   =     -2375.78194040
  -exchange      EXHF   =         0.00000000
  -V(xc)+E(xc)   XCENC  =      -237.69854795
  PAW double counting   =     14501.53757212   -13848.18031875
  entropy T*S    EENTRO =        -0.00000000
  eigenvalues    EBANDS =      -100.16310847
  atomic energy  EATOM  =      9223.86848573
  Solvation  Ediel_sol  =         0.00000000
  free energy    TOTEN  =      -106.69673772 eV

  energy without entropy =     -106.69673772  energy(sigma->0) =     -106.69673772

 average (electrostatic) potential at core
  the test charge radii are     1.1249  1.1712  0.9698
  (the norm of the test charge is              1.0000)
       1 -73.4808       2 -73.4808       3 -73.4808       4 -73.4808       5 -88.7647
       6 -88.7647       7 -88.7647       8 -88.7647       9 -88.7973      10 -88.7973
      11 -88.7973      12 -88.7973      13 -86.9915      14 -86.7724      15 -86.9915
      16 -86.9915      17 -86.9498      18 -86.9498      19 -86.7724      20 -86.7724
      21 -86.7724      22 -86.7938      23 -86.7938      24 -86.7938      25 -86.9915
      26 -86.7938

 E-fermi :   4.6394     XC(G=0):  -9.1076     alpha+bet : -9.8770

[...]

 k-point     6 :      -0.3333   -0.3333    0.2500
  band No.  band energies     occupation
      1      -9.3608      2.00000
      2      -9.2360      2.00000
      3      -9.0355      2.00000
      4      -8.6770      2.00000
      5      -8.5905      2.00000
      6      -8.4316      2.00000
      7      -8.3066      2.00000
      8      -8.1823      2.00000
      9      -8.0240      2.00000
     10      -7.9629      2.00000
     11      -7.9549      2.00000
     12      -7.9499      2.00000
     13      -7.6357      2.00000
     14      -7.5854      2.00000
     15      -4.8985      2.00000
     16      -4.4644      2.00000
     17      -4.4603      2.00000
     18      -4.4366      2.00000
     19      -4.2941      2.00000
     20      -3.6420      2.00000
     21      -3.3054      2.00000
     22      -3.1413      2.00000
     23      -0.7600      2.00000
     24      -0.6591      2.00000
     25      -0.5255      2.00000
     26      -0.5086      2.00000
     27      -0.4012      2.00000
     28      -0.2161      2.00000
     29      -0.0210      2.00000
     30       0.0072      2.00000
     31       0.0911      2.00000
     32       0.2111      2.00000
     33       0.3351      2.00000
     34       0.3526      2.00000
     35       0.4233      2.00000
     36       0.4693      2.00000
     37       0.6251      2.00000
     38       0.6659      2.00000
     39       0.6769      2.00000
     40       0.7448      2.00000
     41       0.7649      2.00000
     42       0.9018      2.00000
     43       0.9398      2.00000
     44       0.9759      2.00000
     45       0.9938      2.00000
     46       1.0418      2.00000
     47       1.1257      2.00000
     48       1.1636      2.00000
     49       1.1815      2.00000
     50       1.2613      2.00000
     51       1.2693      2.00000
     52       1.3476      2.00000
     53       1.3860      2.00000
     54       1.4889      2.00000
     55       1.4994      2.00000
     56       1.5101      2.00000
     57       1.7040      2.00000
     58       1.7633      2.00000
     59       1.8033      2.00000
     60       1.8534      2.00000
[...]
     98       7.4287      0.00000
     99       7.5506      0.00000
    100       7.5819      0.00000
    101       7.7177      0.00000
    102       7.8956      0.00000
    103       8.2046      0.00000
    104       8.2054      0.00000
    105       8.2846      0.00000
    106       8.3654      0.00000
    107       8.6086      0.00000
    108       8.6848      0.00000
    109       8.8030      0.00000
    110       8.9852      0.00000
    111       9.0840      0.00000
    112       9.2388      0.00000

 soft charge-density along one line, spin component           1
         0         1         2         3         4         5         6         7         8         9
 total charge-density along one line

------------------------ aborting loop because EDIFF is reached ----------------------------------------

[...]

  FORCE on cell =-STRESS in cart. coord.  units (eV):
  Direction    XX          YY          ZZ          XY          YZ          ZX
  Alpha Z   141.32219   141.32219   141.32219
  Ewald   -2929.83079 -2170.82771 -2310.96656    -0.00000    99.73806     0.00000
  Hartree   562.46267  1026.28757   786.99457    -0.00000    63.33841    -0.00000
  E(xc)    -687.26811  -686.54671  -684.40937    -0.00000     0.58141    -0.00000
  Local    -650.55292 -1855.92770 -1480.15453    -0.00000  -151.91426     0.00000
  n-local  1625.79266  1630.68421  1624.60158    -0.93112    -6.66069    -0.39154
  augment   -11.58131   -13.01794   -15.11839     0.00000     3.81448    -0.00000
  Kinetic  1949.64020  1927.96442  1937.69044     5.47383    -9.07376     0.72621
  Fock        0.00000     0.00000     0.00000     0.00000     0.00000     0.00000
  Total      -0.01540    -0.06167    -0.04007     0.00000    -0.17635     0.00000
  in kB      -0.03667    -0.14682    -0.09540     0.00000    -0.41981     0.00000

 VOLUME and BASIS-vectors are now :
  energy-cutoff  :      300.00
  volume of cell :      673.02
      direct lattice vectors                 reciprocal lattice vectors
     4.252812397  5.173323692  0.263365591     0.117569258  0.097342619 -0.013611797
    -4.252812397  5.173323692  0.263365591    -0.117569258  0.097342619 -0.013611797
     0.000000000  2.154112610 15.404796439     0.000000000 -0.003328404  0.065380270

  length of vectors
     6.702167764  6.702167764 15.554676289     0.153242935  0.153242935  0.065464938

 FORCES acting on ions
    electron-ion (+dipol)            ewald-force                    non-local-force                 convergence-correction
   -.442E+02 0.840E+01 0.225E+02   0.439E+02 -.901E+01 -.222E+02   0.284E+00 0.588E+00 -.210E+00   -.765E-03 0.206E-02 -.184E-02
   -.442E+02 -.840E+01 -.225E+02   0.439E+02 0.901E+01 0.222E+02   0.284E+00 -.588E+00 0.210E+00   -.765E-03 -.206E-02 0.184E-02
   0.442E+02 -.840E+01 -.225E+02   -.439E+02 0.901E+01 0.222E+02   -.284E+00 -.588E+00 0.210E+00   0.765E-03 -.206E-02 0.184E-02
   0.442E+02 0.840E+01 0.225E+02   -.439E+02 -.901E+01 -.222E+02   -.284E+00 0.588E+00 -.210E+00   0.765E-03 0.206E-02 -.184E-02
   -.230E+01 -.315E+02 0.353E+02   0.313E+01 0.388E+02 -.429E+02   -.833E+00 -.734E+01 0.760E+01   -.117E-03 -.147E-02 0.814E-03
   0.230E+01 -.315E+02 0.353E+02   -.313E+01 0.388E+02 -.429E+02   0.833E+00 -.734E+01 0.760E+01   0.117E-03 -.147E-02 0.814E-03
   0.230E+01 0.315E+02 -.353E+02   -.313E+01 -.388E+02 0.429E+02   0.833E+00 0.734E+01 -.760E+01   0.117E-03 0.147E-02 -.814E-03
   -.230E+01 0.315E+02 -.353E+02   0.313E+01 -.388E+02 0.429E+02   -.833E+00 0.734E+01 -.760E+01   -.117E-03 0.147E-02 -.814E-03
   0.159E+02 -.165E+02 0.541E+02   -.227E+02 0.195E+02 -.622E+02   0.680E+01 -.307E+01 0.812E+01   -.202E-04 -.409E-03 -.862E-03
   0.159E+02 0.165E+02 -.541E+02   -.227E+02 -.195E+02 0.622E+02   0.680E+01 0.307E+01 -.812E+01   -.202E-04 0.409E-03 0.862E-03
   -.159E+02 0.165E+02 -.541E+02   0.227E+02 -.195E+02 0.622E+02   -.680E+01 0.307E+01 -.812E+01   0.202E-04 0.409E-03 0.862E-03
   -.159E+02 -.165E+02 0.541E+02   0.227E+02 0.195E+02 -.622E+02   -.680E+01 -.307E+01 0.812E+01   0.202E-04 -.409E-03 -.862E-03
   0.207E+02 -.471E+02 -.170E+02   -.235E+02 0.479E+02 0.124E+02   0.278E+01 -.833E+00 0.457E+01   -.712E-03 0.531E-03 0.443E-02
   0.180E+02 -.130E+02 0.815E+02   -.206E+02 0.114E+02 -.819E+02   0.255E+01 0.159E+01 0.476E+00   0.112E-02 -.159E-02 -.421E-02
   -.207E+02 0.471E+02 0.170E+02   0.235E+02 -.479E+02 -.124E+02   -.278E+01 0.833E+00 -.457E+01   0.712E-03 -.531E-03 -.443E-02
   -.207E+02 -.471E+02 -.170E+02   0.235E+02 0.479E+02 0.124E+02   -.278E+01 -.833E+00 0.457E+01   0.712E-03 0.531E-03 0.443E-02
   -.549E+02 0.112E-11 0.390E-11   0.525E+02 0.269E-13 0.426E-13   0.235E+01 -.520E-17 -.347E-17   0.512E-03 -.370E-12 -.271E-11
   0.549E+02 0.780E-12 -.290E-12   -.525E+02 0.666E-15 -.355E-13   -.235E+01 -.607E-17 -.347E-17   -.512E-03 0.190E-13 0.554E-12
   -.180E+02 -.130E+02 0.815E+02   0.206E+02 0.114E+02 -.819E+02   -.255E+01 0.159E+01 0.476E+00   -.112E-02 -.159E-02 -.421E-02
   -.180E+02 0.130E+02 -.815E+02   0.206E+02 -.114E+02 0.819E+02   -.255E+01 -.159E+01 -.476E+00   -.112E-02 0.159E-02 0.421E-02
   0.180E+02 0.130E+02 -.815E+02   -.206E+02 -.114E+02 0.819E+02   0.255E+01 -.159E+01 -.476E+00   0.112E-02 0.159E-02 0.421E-02
   0.986E+01 0.126E+02 -.587E+02   -.123E+02 -.116E+02 0.589E+02   0.247E+01 -.967E+00 -.288E+00   0.879E-03 -.232E-04 0.355E-02
   -.986E+01 0.126E+02 -.587E+02   0.123E+02 -.116E+02 0.589E+02   -.247E+01 -.967E+00 -.288E+00   -.879E-03 -.232E-04 0.355E-02
   -.986E+01 -.126E+02 0.587E+02   0.123E+02 0.116E+02 -.589E+02   -.247E+01 0.967E+00 0.288E+00   -.879E-03 0.232E-04 -.355E-02
   0.207E+02 0.471E+02 0.170E+02   -.235E+02 -.479E+02 -.124E+02   0.278E+01 0.833E+00 -.457E+01   -.712E-03 -.531E-03 -.443E-02
   0.986E+01 -.126E+02 0.587E+02   -.123E+02 0.116E+02 -.589E+02   0.247E+01 0.967E+00 0.288E+00   0.879E-03 0.232E-04 -.355E-02
   -.207E-11 0.579E-11 0.112E-10   -.231E-13 0.355E-14 0.497E-13   0.000E+00 0.189E-14 0.111E-15   -.319E-11 0.130E-12 -.958E-11

 POSITION                                       TOTAL-FORCE (eV/Angst)
     -2.10491      3.86768      3.41125        -0.015916     -0.014873      0.019117
     -2.10491      7.55602      4.81788        -0.015916      0.014873     -0.019117
      2.10491      8.63308     12.52028         0.015916      0.014873     -0.019117
      2.10491      4.94474     11.11365         0.015916     -0.014873      0.019117
     -0.15490      7.00285      0.70314        -0.002502      0.030280      0.029624
      0.15490      8.07991      8.40554         0.002502      0.030280      0.029624
      0.15490      5.49791     15.22839         0.002502     -0.030280     -0.029624
     -0.15490      4.42085      7.52599        -0.002502     -0.030280     -0.029624
     -3.32085      6.59742      9.59868        -0.001310     -0.034100     -0.009003
     -3.32085      6.98039     14.03525        -0.001310      0.034100      0.009003
      3.32085      5.90334      6.33285         0.001310      0.034100      0.009003
      3.32085      5.52037      1.89628         0.001310     -0.034100     -0.009003
      1.32889      4.67194      5.48973        -0.008894      0.001191      0.010754
     -1.74691      8.35836      2.44372        -0.011438     -0.010105     -0.011467
     -1.32889      7.82882     10.44180         0.008894     -0.001191     -0.010754
     -1.32889      5.74899     13.19212         0.008894      0.001191      0.010754
      3.94320      6.78891     11.81696        -0.009577     -0.000000      0.000000
     -3.94320      5.71185      4.11456         0.009577     -0.000000      0.000000
      1.74691      9.43542     10.14612         0.011438     -0.010105     -0.011467
      1.74691      4.14240     13.48781         0.011438      0.010105      0.011467
     -1.74691      3.06534      5.78541        -0.011438      0.010105      0.011467
     -1.56620      6.39341      7.02575         0.007994      0.009210     -0.005673
      1.56620      7.47046     14.72815        -0.007994      0.009210     -0.005673
      1.56620      6.10735      8.90577        -0.007994     -0.009210      0.005673
      1.32889      6.75177      2.73940        -0.008894     -0.001191     -0.010754
     -1.56620      5.03030      1.20338         0.007994     -0.009210      0.005673
    total drift:                               -0.000000      0.000000      0.000000

  FREE ENERGIE OF THE ION-ELECTRON SYSTEM (eV)
  free  energy   TOTEN  =      -106.69673772 eV

  energy  without entropy=     -106.69673772  energy(sigma->0) =     -106.69673772

 d Force = 0.1032196E-04[-0.120E-04, 0.326E-04]  d Energy =-0.1096672E-04 0.213E-04
 d Force =-0.2420811E-01[-0.242E-01,-0.242E-01]  d Ewald  = 0.1235660E+00-0.148E+00

 reached required accuracy - stopping structural energy minimisation

 total charge

# of ion       s       p       d       tot
    1        0.304   0.226   9.236   9.767
    2        0.303   0.227   9.249   9.779
    3        0.304   0.226   9.236   9.767
    4        0.303   0.227   9.249   9.779
    5        1.267   0.952   0.069   2.288
    6        1.272   0.941   0.069   2.282
    7        1.267   0.952   0.069   2.288
    8        1.272   0.941   0.069   2.282
    9        1.249   0.988   0.066   2.303
   10        1.250   0.993   0.066   2.309
   11        1.249   0.988   0.066   2.303
   12        1.250   0.993   0.066   2.309
   13        1.365   2.328   0.000   3.693
   14        1.359   2.336   0.000   3.695
   15        1.365   2.328   0.000   3.693
   16        1.362   2.303   0.000   3.665
   17        1.355   2.327   0.000   3.682
   18        1.355   2.327   0.000   3.682
   19        1.351   2.312   0.000   3.663
   20        1.359   2.336   0.000   3.695
   21        1.351   2.312   0.000   3.663
   22        1.350   2.330   0.000   3.680
   23        1.355   2.337   0.000   3.692
   24        1.350   2.330   0.000   3.680
   25        1.362   2.303   0.000   3.665
   26        1.355   2.337   0.000   3.692
tot         30.285  41.201  37.508 108.993