 vasp.5.4.4.18Apr17-6-g9f103f2a35 (build Oct 27 2022 13:04:57) complex

 executed on             LinuxIFC date 2024.07.04  10:12:11

 INCAR:
 POTCAR:    PAW_PBE Li 17Jan2003
 POTCAR:    PAW_PBE Bi 08Apr2002
 POTCAR:    PAW_PBE Se 06Sep2000

 POTCAR:    PAW_PBE Li 17Jan2003
   VRHFIN =Li: s1p0

   TITEL  = PAW_PBE Li 17Jan2003
   POMASS =    7.010; ZVAL   =    1.000    mass and valenz
   ENMAX  =  140.000; ENMIN  =  100.000 eV

 POTCAR:    PAW_PBE Bi 08Apr2002
   VRHFIN =Bi:

   TITEL  = PAW_PBE Bi 08Apr2002
   POMASS =  208.980; ZVAL   =    5.000    mass and valenz
   ENMAX  =  105.037; ENMIN  =   78.777 eV

 POTCAR:    PAW_PBE Se 06Sep2000
   VRHFIN =Se: s2p4

   TITEL  = PAW_PBE Se 06Sep2000
   POMASS =   78.960; ZVAL   =    6.000    mass and valenz
   ENMAX  =  211.555; ENMIN  =  158.666 eV

 Optimization of the real space projectors (new method)

 maximal supplied QI-value         = 18.33
 optimisation between [QCUT,QGAM] = [  8.80, 17.60] = [ 21.68, 86.71] Ry
 Optimized for a Real-space Cutoff    1.15 Angstroem

   l    n(q)    QCUT    max X(q) W(low)/X(q) W(high)/X(q)  e(spline)
   0      6     8.799    33.825    0.11E-02    0.11E-02    0.82E-07
   0      6     8.799     8.944    0.75E-03    0.85E-03    0.59E-07
   1      5     8.799     4.214    0.92E-03    0.27E-03    0.41E-07
 Optimization of the real space projectors (new method)

[...]

   l    n(q)    QCUT    max X(q) W(low)/X(q) W(high)/X(q)  e(spline)
   0      8     8.855    93.365    0.12E-03    0.22E-03    0.92E-07
   0      8     8.855    75.373    0.13E-03    0.24E-03    0.10E-06
   1      8     8.855    32.978    0.17E-02    0.62E-03    0.17E-06
   1      8     8.855    35.433    0.19E-02    0.68E-03    0.19E-06
   2      7     8.855     8.108    0.22E-03    0.34E-03    0.64E-07
 Optimization of the real space projectors (new method)

 maximal supplied QI-value         = 17.95
 optimisation between [QCUT,QGAM] = [  8.80, 17.59] = [ 21.67, 86.68] Ry
 Optimized for a Real-space Cutoff    1.19 Angstroem

   l    n(q)    QCUT    max X(q) W(low)/X(q) W(high)/X(q)  e(spline)
   0      6     8.797   133.320    0.14E-02    0.11E-02    0.95E-07
   0      6     8.797   111.601    0.15E-02    0.12E-02    0.10E-06
   1      6     8.797    47.222    0.19E-02    0.96E-03    0.11E-06
   1      6     8.797    33.775    0.19E-02    0.99E-03    0.11E-06
   2      5     8.797     3.720    0.16E-02    0.14E-02    0.40E-07
  PAW_PBE Li 17Jan2003                  :
  PAW_PBE Bi 08Apr2002                  :
  PAW_PBE Se 06Sep2000                  :

 POSCAR: Li16 Bi8 Se20
  positions in direct lattice
 exchange correlation table for  LEXCH =        8
   RHO(1)=    0.500       N(1)  =     2000
   RHO(2)=  100.500       N(2)  =     4000

 ion  position               nearest neighbor table
   1  0.250  0.192  0.920-  28 2.97  28 2.97
   2  0.250  0.692  0.580-  26 2.97  26 2.97
   3  0.750  0.808  0.080-  27 2.97  27 2.97
   4  0.250  0.428  0.917-  29 2.91  29 2.91
   5  0.750  0.572  0.083-  42 2.91  42 2.91
   6  0.250  0.928  0.583-  31 2.91  31 2.91
   7  0.750  0.072  0.417-  30 2.91  30 2.91
   8  0.250  0.185  0.265-  43 2.97
   9  0.750  0.815  0.735-  44 2.97
  10  0.250  0.685  0.235-  41 2.97
  11  0.750  0.315  0.765-  40 2.97
  12  0.250  0.183  0.569-  32 2.89
  13  0.750  0.817  0.431-  33 2.89
  14  0.250  0.683  0.931-  34 2.89
  15  0.750  0.317  0.069-  35 2.89
  16  0.750  0.308  0.420-  25 2.97  25 2.97
  17  0.750  0.570  0.757-  29 2.66  34 2.80  34 2.80  36 2.86  36 2.86  26 3.08
  18  0.250  0.430  0.243-  42 2.66  35 2.80  35 2.80  37 2.86  37 2.86  25 3.08
  19  0.250  0.930  0.257-  30 2.66  33 2.80  33 2.80  39 2.86  39 2.86  27 3.08
  20  0.750  0.070  0.743-  31 2.66  32 2.80  32 2.80  38 2.86  38 2.86  28 3.08
  21  0.250  0.442  0.589-  36 2.70  40 2.75  40 2.75  26 2.97  26 2.97  25 3.00
  22  0.750  0.558  0.411-  37 2.70  41 2.75  41 2.75  25 2.97  25 2.97  26 3.00
  23  0.250  0.942  0.911-  38 2.70  44 2.75  44 2.75  28 2.97  28 2.97  27 3.00
  24  0.750  0.058  0.089-  39 2.70  43 2.75  43 2.75  27 2.97  27 2.97  28 3.00
  25  0.250  0.433  0.418-  22 2.97  22 2.97  16 2.97  16 2.97  21 3.00  18 3.08
  26  0.750  0.567  0.582-  21 2.97  21 2.97   2 2.97   2 2.97  22 3.00  17 3.08
  27  0.250  0.933  0.082-  24 2.97  24 2.97   3 2.97   3 2.97  23 3.00  19 3.08
  28  0.750  0.067  0.918-  23 2.97  23 2.97   1 2.97   1 2.97  24 3.00  20 3.08
  29  0.750  0.548  0.907-  17 2.66   4 2.91   4 2.91
  30  0.250  0.952  0.407-  19 2.66   7 2.91   7 2.91
  31  0.750  0.048  0.593-  20 2.66   6 2.91   6 2.91
  32  0.250  0.181  0.734-  20 2.80  20 2.80  12 2.89
  33  0.750  0.819  0.266-  19 2.80  19 2.80  13 2.89
  34  0.250  0.681  0.766-  17 2.80  17 2.80  14 2.89
  35  0.750  0.319  0.234-  18 2.80  18 2.80  15 2.89
  36  0.250  0.455  0.742-  21 2.70  17 2.86  17 2.86
  37  0.750  0.545  0.258-  22 2.70  18 2.86  18 2.86
  38  0.250  0.955  0.758-  23 2.70  20 2.86  20 2.86
  39  0.750  0.045  0.242-  24 2.70  19 2.86  19 2.86
  40  0.750  0.335  0.598-  21 2.75  21 2.75  11 2.97
  41  0.250  0.665  0.402-  22 2.75  22 2.75  10 2.97
  42  0.250  0.452  0.093-  18 2.66   5 2.91   5 2.91
  43  0.250  0.165  0.098-  24 2.75  24 2.75   8 2.97
  44  0.750  0.835  0.902-  23 2.75  23 2.75   9 2.97

  LATTYP: Found a simple orthorhombic cell.
 ALAT       =     4.1137554600
 B/A-ratio  =     4.1578771651
 C/A-ratio  =     4.2772772813

  Lattice vectors:

 A1 = (   4.1137554600,   0.0000000000,   0.0000000000)
 A2 = (   0.0000000000,  17.1044898900,   0.0000000000)
 A3 = (   0.0000000000,   0.0000000000,  17.5956727700)

Analysis of symmetry for initial positions (statically):
 Subroutine PRICEL returns:
 Original cell was already a primitive cell.

 Routine SETGRP: Setting up the symmetry group for a
 simple orthorhombic supercell.

 Subroutine GETGRP returns: Found  8 space group operations
 (whereof  2 operations were pure point group operations)
 out of a pool of  8 trial point group operations.

The static configuration has the point symmetry S_2 .
 The point group associated with its full space group is D_2h.

Analysis of symmetry for dynamics (positions and initial velocities):
 Subroutine PRICEL returns:
 Original cell was already a primitive cell.

 Routine SETGRP: Setting up the symmetry group for a
 simple orthorhombic supercell.

 Subroutine GETGRP returns: Found  8 space group operations
 (whereof  2 operations were pure point group operations)
 out of a pool of  8 trial point group operations.

The dynamic configuration has the point symmetry S_2 .
 The point group associated with its full space group is D_2h.

 Subroutine INISYM returns: Found  8 space group operations
 (whereof  2 operations are pure point group operations),
 and found     1 'primitive' translations

 KPOINTS: pymatgen with grid density = 807 / numbe

Automatic generation of k-mesh.
Space group operators:
 irot       det(A)        alpha          n_x          n_y          n_z        tau_x        tau_y        tau_z
    1     1.000000     0.000001     1.000000     0.000000     0.000000     0.000000     0.000000     0.000000
    2    -1.000000     0.000001     1.000000     0.000000     0.000000     0.000000     0.000000     0.000000
    3     1.000000   180.000000     0.000000     0.000000     1.000000     0.000000     0.500000     0.500000
    4    -1.000000   180.000000     0.000000     0.000000     1.000000     0.000000     0.500000     0.500000
    5     1.000000   180.000000     0.000000     1.000000     0.000000     0.500000     0.500000     0.500000
    6    -1.000000   180.000000     0.000000     1.000000     0.000000     0.500000     0.500000     0.500000
    7     1.000000   179.999999     1.000000     0.000000     0.000000     0.500000     0.000000     0.000000
    8    -1.000000   179.999999     1.000000     0.000000     0.000000     0.500000     0.000000     0.000000

 Subroutine IBZKPT returns following result:

 Found      3 irreducible k-points:

 Following reciprocal coordinates:
            Coordinates               Weight
  0.000000  0.250000  0.250000      4.000000
  0.200000  0.250000  0.250000      8.000000
  0.400000  0.250000  0.250000      8.000000

 Following cartesian coordinates:
            Coordinates               Weight
  0.000000  0.014616  0.014208      4.000000
  0.048617  0.014616  0.014208      8.000000
  0.097235  0.014616  0.014208      8.000000

 SYSTEM =  CIS
 POSCAR =  Li16 Bi8 Se20

 Startparameter for this run:
   NWRITE =      2    write-flag & timer
   PREC   = medium    normal or accurate (medium, high low for compatibility)
   ISTART =      0    job   : 0-new  1-cont  2-samecut
   ICHARG =      2    charge: 1-file 2-atom 10-const
   ISPIN  =      1    spin polarized calculation?
   LNONCOLLINEAR =      F non collinear calculations
   LSORBIT =      F    spin-orbit coupling
   INIWAV =      1    electr: 0-lowe 1-rand  2-diag
   LASPH  =      T    aspherical Exc in radial PAW
   METAGGA=      F    non-selfconsistent MetaGGA calc.

 Electronic Relaxation 1
   ENCUT  =  300.0 eV  22.05 Ry    4.70 a.u.   5.81 24.16 24.85*2*pi/ulx,y,z
   ENINI  =  300.0     initial cutoff
   ENAUG  =  446.8 eV  augmentation charge cutoff
   NELM   =     60;   NELMIN=  2; NELMDL= -5     # of ELM steps
   EDIFF  = 0.1E-03   stopping-criterion for ELM
   LREAL  =      T    real-space projection
   NLSPLINE    = F    spline interpolate recip. space projectors
   LCOMPAT=      F    compatible to vasp.4.4
   GGA_COMPAT  = T    GGA compatible to vasp.4.4-vasp.4.6
   LMAXPAW     = -100 max onsite density
   LMAXMIX     =    4 max onsite mixed and CHGCAR
   VOSKOWN=      0    Vosko Wilk Nusair interpolation
   ROPT   =   -0.00200  -0.00200  -0.00200
 Ionic relaxation
   EDIFFG = -.5E-01   stopping-criterion for IOM
   NSW    =     99    number of steps for IOM
   NBLOCK =      1;   KBLOCK =     99    inner block; outer block
   IBRION =      2    ionic relax: 0-MD 1-quasi-New 2-CG
   NFREE  =      1    steps in history (QN), initial steepest desc. (CG)
   ISIF   =      3    stress and relaxation
   IWAVPR =     11    prediction:  0-non 1-charg 2-wave 3-comb
   ISYM   =      2    0-nonsym 1-usesym 2-fastsym
   LCORR  =      T    Harris-Foulkes like correction to forces

   POTIM  = 0.1000    time-step for ionic-motion
   TEIN   =    0.0    initial temperature
   TEBEG  =    0.0;   TEEND  =   0.0 temperature during run
   SMASS  =  -3.00    Nose mass-parameter (am)
   estimated Nose-frequenzy (Omega)   =  0.10E-29 period in steps =****** mass=  -0.387E-27a.u.
   SCALEE = 1.0000    scale energy and forces
   NPACO  =    256;   APACO  = 16.0  distance and # of slots for P.C.
   PSTRESS=    0.0 pullay stress

  Mass of Ions in am
   POMASS =   7.01208.98 78.96
  Ionic Valenz
   ZVAL   =   1.00  5.00  6.00
  Atomic Wigner-Seitz radii
  virtual crystal weights
   VCA    =   1.00  1.00  1.00
   NELECT =     176.0000    total number of electrons
   NUPDOWN=      -1.0000    fix difference up-down

 DOS related values:
   EMIN   =  10.00;   EMAX   =-10.00  energy-range for DOS
   EFERMI =   0.00
   ISMEAR =     0;   SIGMA  =   0.05  broadening in eV -4-tet -1-fermi 0-gaus

 Electronic relaxation 2 (details)
[...]
     10      -9.7405      2.00000
     11      -9.6924      2.00000
     12      -9.6856      2.00000
     13      -9.6360      2.00000
     14      -9.6037      2.00000
     15      -9.5642      2.00000
     16      -9.5480      2.00000
     17      -9.4509      2.00000
     18      -9.4415      2.00000
     19      -9.4169      2.00000
     20      -9.4107      2.00000
     21      -8.1472      2.00000
     22      -8.1431      2.00000
     23      -8.1137      2.00000
     24      -8.1014      2.00000
     25      -7.7601      2.00000
     26      -7.7581      2.00000
     27      -7.5330      2.00000
     28      -7.5240      2.00000
     29      -2.3404      2.00000
     30      -2.2872      2.00000
     31      -2.2415      2.00000
     32      -2.1839      2.00000
     33      -1.9130      2.00000
     34      -1.8725      2.00000
     35      -1.8187      2.00000
     36      -1.7550      2.00000
     37      -1.5917      2.00000
     38      -1.5751      2.00000
     39      -1.4926      2.00000
     40      -1.4788      2.00000
     41      -1.4053      2.00000
     42      -1.3524      2.00000
     43      -1.2736      2.00000
     44      -1.1781      2.00000
     45      -1.0754      2.00000
     46      -1.0599      2.00000
     47      -1.0094      2.00000
     48      -0.9336      2.00000
     49      -0.4937      2.00000
     50      -0.4547      2.00000
     51      -0.4398      2.00000
     52      -0.3871      2.00000
     53      -0.3348      2.00000
     54      -0.2260      2.00000
     55      -0.1915      2.00000
     56      -0.1643      2.00000
     57      -0.0182      2.00000
     58       0.0560      2.00000
     59       0.1232      2.00000
     60       0.1613      2.00000
[...]
     98       4.7235      0.00000
     99       4.7528      0.00000
    100       4.7740      0.00000
    101       4.9558      0.00000
    102       4.9766      0.00000
    103       5.0665      0.00000
    104       5.0883      0.00000
    105       5.1201      0.00000
    106       5.1638      0.00000
    107       5.2303      0.00000
    108       5.2749      0.00000
    109       5.8081      0.00000
    110       5.8269      0.00000
    111       6.0060      0.00000
    112       6.0513      0.00000

 soft charge-density along one line, spin component           1
         0         1         2         3         4         5         6         7         8         9
 total charge-density along one line

------------------------ aborting loop because EDIFF is reached ----------------------------------------

[...]

  FORCE on cell =-STRESS in cart. coord.  units (eV):
  Direction    XX          YY          ZZ          XY          YZ          ZX
  Alpha Z   201.74273   201.74273   201.74273
  Ewald   -1132.18802 -2062.69120 -1946.48803    -0.00000     0.00000     0.00000
  Hartree   960.74712   243.74088   290.80021    -0.00000    -0.00000    -0.00000
  E(xc)    -657.17390  -656.34825  -657.77484     0.00000    -0.00000    -0.00000
  Local   -2305.74018  -651.12355  -811.23337     0.00000    -0.00000     0.00000
  n-local  1458.27890  1449.65553  1461.78994    -0.17519    -0.01159    -0.00395
  augment  -299.06691  -296.90550  -298.16388     0.00000     0.00000     0.00000
  Kinetic  1773.45730  1771.64717  1758.67625     0.19505    -0.00336    -0.06297
  Fock        0.00000     0.00000     0.00000     0.00000     0.00000     0.00000
  Total       0.05705    -0.28219    -0.65098     0.00000     0.00000     0.00000
  in kB       0.08057    -0.39856    -0.91944     0.00000     0.00000     0.00000

 VOLUME and BASIS-vectors are now :
  energy-cutoff  :      300.00
  volume of cell :     1134.37
      direct lattice vectors                 reciprocal lattice vectors
     4.096422087  0.000000000  0.000000000     0.244115469 -0.000000000  0.000000000
     0.000000000 16.414325195  0.000000000    -0.000000000  0.060922395  0.000000000
     0.000000000  0.000000000 16.870474802     0.000000000  0.000000000  0.059275154

  length of vectors
     4.096422087 16.414325195 16.870474802     0.244115469  0.060922395  0.059275154

 FORCES acting on ions
    electron-ion (+dipol)            ewald-force                    non-local-force                 convergence-correction
   -.103E-11 -.219E+02 0.567E+00   0.241E-14 0.211E+02 -.757E+00   0.110E-18 0.726E+00 0.190E+00   -.381E-15 -.224E-03 0.173E-03
   -.138E-11 -.219E+02 -.567E+00   0.118E-14 0.211E+02 0.757E+00   0.115E-18 0.726E+00 -.190E+00   -.521E-15 -.224E-03 -.173E-03
   -.103E-11 0.219E+02 -.567E+00   -.182E-14 -.211E+02 0.757E+00   -.110E-18 -.726E+00 -.190E+00   -.505E-16 0.224E-03 -.173E-03
   -.105E-11 0.109E+02 -.438E+01   -.124E-15 -.100E+02 0.467E+01   -.181E-19 -.888E+00 -.293E+00   -.116E-15 0.820E-04 0.795E-04
   -.105E-11 -.109E+02 0.438E+01   -.479E-15 0.100E+02 -.467E+01   0.181E-19 0.888E+00 0.293E+00   0.992E-16 -.820E-04 -.795E-04
   -.839E-12 0.109E+02 0.438E+01   0.225E-15 -.100E+02 -.467E+01   -.181E-19 -.888E+00 0.293E+00   -.111E-15 0.820E-04 -.795E-04
   -.836E-12 -.109E+02 -.438E+01   -.849E-15 0.100E+02 0.467E+01   0.181E-19 0.888E+00 -.293E+00   -.516E-16 -.820E-04 0.795E-04
   -.179E-11 -.110E+01 -.125E+02   -.960E-15 0.124E+01 0.120E+02   -.223E-20 -.110E+00 0.545E+00   -.103E-15 -.902E-04 -.448E-04
   -.179E-11 0.110E+01 0.125E+02   0.142E-14 -.124E+01 -.120E+02   0.223E-20 0.110E+00 -.545E+00   0.285E-15 0.902E-04 0.448E-04
   -.840E-12 -.110E+01 0.125E+02   -.378E-16 0.124E+01 -.120E+02   0.520E-19 -.110E+00 -.545E+00   -.714E-16 -.902E-04 0.448E-04
   -.841E-12 0.110E+01 -.125E+02   0.679E-15 -.124E+01 0.120E+02   -.520E-19 0.110E+00 0.545E+00   0.134E-15 0.902E-04 -.448E-04
   -.104E-11 0.749E+00 0.121E+02   -.157E-14 -.114E+01 -.117E+02   0.800E-20 0.393E+00 -.449E+00   -.110E-15 -.175E-03 -.155E-03
   -.104E-11 -.749E+00 -.121E+02   -.642E-15 0.114E+01 0.117E+02   -.800E-20 -.393E+00 0.449E+00   0.219E-15 0.175E-03 0.155E-03
   -.155E-11 0.749E+00 -.121E+02   -.196E-14 -.114E+01 0.117E+02   0.801E-20 0.393E+00 0.449E+00   -.184E-15 -.175E-03 0.155E-03
   -.155E-11 -.749E+00 0.121E+02   0.674E-15 0.114E+01 -.117E+02   -.801E-20 -.393E+00 -.449E+00   0.250E-15 0.175E-03 -.155E-03
   -.138E-11 0.219E+02 0.567E+00   -.320E-14 -.211E+02 -.757E+00   -.115E-18 -.726E+00 0.190E+00   0.413E-16 0.224E-03 0.173E-03
   0.105E-10 0.678E+00 -.302E+02   0.457E-14 -.151E+01 0.286E+02   -.416E-18 0.854E+00 0.157E+01   0.331E-14 -.106E-02 0.461E-03
   0.105E-10 -.678E+00 0.302E+02   -.197E-14 0.151E+01 -.286E+02   0.416E-18 -.854E+00 -.157E+01   -.282E-14 0.106E-02 -.461E-03
   0.169E-11 -.678E+00 -.302E+02   -.672E-14 0.151E+01 0.286E+02   -.174E-19 -.854E+00 0.157E+01   0.458E-15 0.106E-02 0.461E-03
   0.165E-11 0.678E+00 0.302E+02   0.722E-14 -.151E+01 -.286E+02   0.174E-19 0.854E+00 -.157E+01   0.406E-14 -.106E-02 -.461E-03
   0.259E-11 0.285E+02 -.158E+02   -.130E-13 -.273E+02 0.159E+02   -.261E-19 -.128E+01 -.104E+00   -.136E-14 0.888E-03 -.189E-02
   0.256E-11 -.285E+02 0.158E+02   0.149E-13 0.273E+02 -.159E+02   0.261E-19 0.128E+01 0.104E+00   0.522E-14 -.888E-03 0.189E-02
   0.929E-11 0.285E+02 0.158E+02   -.104E-13 -.273E+02 -.159E+02   -.261E-19 -.128E+01 0.104E+00   -.213E-14 0.888E-03 0.189E-02
   0.926E-11 -.285E+02 -.158E+02   0.649E-14 0.273E+02 0.159E+02   0.261E-19 0.128E+01 -.104E+00   0.409E-14 -.888E-03 -.189E-02
   0.151E-10 0.593E+02 0.164E+02   0.135E-13 -.604E+02 -.166E+02   0.240E-18 0.112E+01 0.265E+00   -.819E-14 0.917E-03 0.188E-02
   0.151E-10 -.593E+02 -.164E+02   -.102E-13 0.604E+02 0.166E+02   -.240E-18 -.112E+01 -.265E+00   0.955E-14 -.917E-03 -.188E-02
   0.149E-10 0.593E+02 -.164E+02   0.160E-13 -.604E+02 0.166E+02   0.228E-19 0.112E+01 -.265E+00   -.257E-14 0.917E-03 -.188E-02
   0.149E-10 -.593E+02 0.164E+02   -.178E-13 0.604E+02 -.166E+02   -.228E-19 -.112E+01 0.265E+00   0.331E-14 -.917E-03 0.188E-02
   0.169E-10 0.823E+01 -.753E+02   -.423E-14 -.764E+01 0.764E+02   0.967E-19 -.577E+00 -.109E+01   0.953E-14 -.445E-03 0.287E-03
   0.119E-10 -.823E+01 -.753E+02   -.160E-14 0.764E+01 0.764E+02   0.117E-19 0.577E+00 -.109E+01   -.283E-14 0.445E-03 0.287E-03
   0.119E-10 0.823E+01 0.753E+02   -.248E-15 -.764E+01 -.764E+02   -.117E-19 -.577E+00 0.109E+01   0.662E-14 -.445E-03 -.287E-03
   0.218E-10 -.608E+02 -.237E+02   -.445E-14 0.621E+02 0.241E+02   -.260E-19 -.127E+01 -.407E+00   -.167E-14 -.524E-03 0.907E-03
   0.218E-10 0.608E+02 0.237E+02   0.485E-15 -.621E+02 -.241E+02   0.260E-19 0.127E+01 0.407E+00   -.279E-14 0.524E-03 -.907E-03
   0.196E-10 -.608E+02 0.237E+02   -.240E-14 0.621E+02 -.241E+02   -.259E-19 -.127E+01 0.407E+00   -.832E-14 -.524E-03 -.907E-03
   0.196E-10 0.608E+02 -.237E+02   -.539E-14 -.621E+02 0.241E+02   0.259E-19 0.127E+01 -.407E+00   0.590E-14 0.524E-03 0.907E-03
   0.126E-10 0.560E+02 -.840E+02   0.152E-14 -.572E+02 0.850E+02   0.245E-19 0.120E+01 -.972E+00   0.243E-14 0.303E-02 0.209E-02
   0.126E-10 -.560E+02 0.840E+02   -.422E-14 0.572E+02 -.850E+02   -.245E-19 -.120E+01 0.972E+00   0.332E-14 -.303E-02 -.209E-02
   0.162E-10 0.560E+02 0.840E+02   0.372E-15 -.572E+02 -.850E+02   0.244E-19 0.120E+01 0.972E+00   -.937E-14 0.303E-02 -.209E-02
   0.162E-10 -.560E+02 -.840E+02   -.575E-14 0.572E+02 0.850E+02   -.244E-19 -.120E+01 -.972E+00   0.703E-14 -.303E-02 0.209E-02
   0.211E-10 0.802E+02 0.288E+02   0.779E-14 -.819E+02 -.291E+02   0.252E-18 0.174E+01 0.354E+00   0.115E-14 0.136E-02 -.121E-02
   0.211E-10 -.802E+02 -.288E+02   -.148E-13 0.819E+02 0.291E+02   -.252E-18 -.174E+01 -.354E+00   -.689E-14 -.136E-02 0.121E-02
   0.169E-10 -.823E+01 0.753E+02   0.206E-14 0.764E+01 -.764E+02   -.967E-19 0.577E+00 0.109E+01   -.488E-14 0.445E-03 -.287E-03
   0.200E-10 -.802E+02 0.288E+02   0.235E-15 0.819E+02 -.291E+02   -.281E-18 -.174E+01 0.354E+00   -.897E-14 -.136E-02 -.121E-02
   0.200E-10 0.802E+02 -.288E+02   0.412E-14 -.819E+02 0.291E+02   0.281E-18 0.174E+01 -.354E+00   0.549E-14 0.136E-02 0.121E-02
   0.369E-09 0.565E-09 -.304E-09   -.290E-13 0.426E-13 -.213E-13   -.250E-27 -.222E-15 0.222E-15   0.802E-14 -.149E-13 0.471E-14

 POSITION                                       TOTAL-FORCE (eV/Angst)
      1.02411      2.60790     15.40070         0.000000      0.009136     -0.000519
      1.02411     10.81506      9.90501         0.000000      0.009136      0.000519
      3.07232     13.80643      1.46977        -0.000000     -0.009136      0.000519
      1.02411      7.97513     15.64484         0.000000      0.018132      0.002058
      3.07232      8.43919      1.22564        -0.000000     -0.018132     -0.002058
      1.02411     16.18229      9.66087         0.000000      0.018132     -0.002058
      3.07232      0.23203      7.20960        -0.000000     -0.018132      0.002058
      1.02411      3.17118      3.87651         0.000000      0.038354      0.004861
      3.07232     13.24314     12.99396        -0.000000     -0.038354     -0.004861
      1.02411     11.37835      4.55873         0.000000      0.038354     -0.004861
      3.07232      5.03598     12.31175        -0.000000     -0.038354      0.004861
      1.02411      3.00506     10.14617         0.000000      0.004852      0.011778
      3.07232     13.40927      6.72431        -0.000000     -0.004852     -0.011778
      1.02411     11.21222     15.15954         0.000000      0.004852     -0.011778
      3.07232      5.20211      1.71093        -0.000000     -0.004852      0.011778
      3.07232      5.59926      6.96547        -0.000000     -0.009136     -0.000519
      3.07232      9.27005     12.88366         0.000000      0.021267      0.000654
      1.02411      7.14427      3.98681        -0.000000     -0.021267     -0.000654
      1.02411     15.35143      4.44843        -0.000000     -0.021267      0.000654
      3.07232      1.06289     12.42205         0.000000      0.021267     -0.000654
      1.02411      6.98888      9.94322        -0.000000     -0.000618      0.012547
      3.07232      9.42544      6.92725         0.000000      0.000618     -0.012547
      1.02411     15.19605     15.36249        -0.000000     -0.000618     -0.012547
      3.07232      1.21828      1.50798         0.000000      0.000618      0.012547
      1.02411      7.19022      7.01737         0.000000      0.033586      0.020271
      3.07232      9.22410      9.85310        -0.000000     -0.033586     -0.020271
      1.02411     15.39739      1.41787         0.000000      0.033586     -0.020271
      3.07232      1.01694     15.45261        -0.000000     -0.033586      0.020271
      3.07232      9.52168     15.67332         0.000000      0.016147      0.043712
      1.02411     15.09980      7.23808        -0.000000     -0.016147      0.043712
      3.07232      1.31452      9.63239         0.000000      0.016147     -0.043712
      1.02411      3.16079     12.80164         0.000000      0.018145      0.000319
      3.07232     13.25354      4.06883        -0.000000     -0.018145     -0.000319
      1.02411     11.36795     12.50407         0.000000      0.018145     -0.000319
      3.07232      5.04638      4.36640        -0.000000     -0.018145      0.000319
      1.02411      7.00915     12.92317         0.000000      0.016926      0.009400
      3.07232      9.40518      3.94731        -0.000000     -0.016926     -0.009400
      1.02411     15.21631     12.38255         0.000000      0.016926     -0.009400
      3.07232      1.19802      4.48793        -0.000000     -0.016926      0.009400
      3.07232      4.96941      9.64448         0.000000      0.005441      0.015312
      1.02411     11.44491      7.22600        -0.000000     -0.005441     -0.015312
      1.02411      6.89264      1.19716        -0.000000     -0.016147     -0.043712
      1.02411      3.23775      1.20924        -0.000000     -0.005441      0.015312
      3.07232     13.17658     15.66123         0.000000      0.005441     -0.015312
    total drift:                                0.000000      0.000000     -0.000000

  FREE ENERGIE OF THE ION-ELECTRON SYSTEM (eV)
  free  energy   TOTEN  =      -168.28798457 eV

  energy  without entropy=     -168.28798457  energy(sigma->0) =     -168.28798457

 d Force = 0.2497743E-02[ 0.193E-02, 0.306E-02]  d Energy = 0.2779066E-02-0.281E-03
 d Force =-0.2234876E+00[-0.231E+00,-0.216E+00]  d Ewald  = 0.4027867E+00-0.626E+00

 Conjugate gradient step on ions:
 trial-energy change:   -0.002779  1 .order   -0.003119   -0.003807   -0.002431
  (g-gl).g = 0.520E-03      g.g   = 0.677E-03  gl.gl    = 0.661E-03
 g(Force)  = 0.449E-03   g(Stress)= 0.228E-03 ortho     = 0.892E-04
 gamma     =   0.78729
 trial     =   5.09209
 opt step  =  14.08551  (harmonic =  14.08551) maximal distance =0.01276408
 next E    =  -168.290471   (d E  =  -0.00527)

 reached required accuracy - stopping structural energy minimisation

 total charge

# of ion       s       p       d       tot
    1        0.075   0.124   0.000   0.199
    2        0.075   0.124   0.000   0.199
    3        0.075   0.124   0.000   0.199
    4        0.077   0.128   0.000   0.205
    5        0.077   0.128   0.000   0.205
    6        0.077   0.128   0.000   0.205
    7        0.077   0.128   0.000   0.205
    8        0.062   0.099   0.000   0.160
    9        0.062   0.099   0.000   0.160
   10        0.062   0.099   0.000   0.160
   11        0.062   0.099   0.000   0.160
   12        0.068   0.113   0.000   0.181
   13        0.068   0.113   0.000   0.181
   14        0.068   0.113   0.000   0.181
   15        0.068   0.113   0.000   0.181
   16        0.075   0.124   0.000   0.199
   17        1.830   1.462   0.158   3.450
   18        1.830   1.462   0.158   3.450
   19        1.830   1.462   0.158   3.450
   20        1.830   1.462   0.158   3.450
   21        1.834   1.467   0.160   3.461
   22        1.834   1.467   0.160   3.461
   23        1.834   1.467   0.160   3.461
   24        1.834   1.467   0.160   3.461
   25        1.458   2.382   0.017   3.857
   26        1.458   2.382   0.017   3.857
   27        1.458   2.382   0.017   3.857
   28        1.458   2.382   0.017   3.857
   29        1.443   2.425   0.009   3.877
   30        1.443   2.425   0.009   3.877
   31        1.443   2.425   0.009   3.877
   32        1.452   2.375   0.011   3.837
   33        1.452   2.375   0.011   3.837
   34        1.452   2.375   0.011   3.838
   35        1.452   2.375   0.011   3.838
   36        1.461   2.331   0.012   3.804
   37        1.461   2.331   0.012   3.804
   38        1.461   2.331   0.012   3.804
   39        1.461   2.331   0.012   3.804
   40        1.459   2.363   0.013   3.835
   41        1.459   2.363   0.013   3.835
   42        1.443   2.425   0.009   3.877
   43        1.459   2.363   0.013   3.835
   44        1.459   2.363   0.013   3.835
tot         44.877  61.074   1.518 107.469