 vasp.5.4.4.18Apr17-6-g9f103f2a35 (build Oct 27 2022 13:04:57) complex

 executed on             LinuxIFC date 2024.06.30  21:25:23

 INCAR:
 POTCAR:    PAW_PBE K_pv 17Jan2003
 POTCAR:    PAW_PBE Sb 06Sep2000
 POTCAR:    PAW_PBE S 06Sep2000

 POTCAR:    PAW_PBE K_pv 17Jan2003
   VRHFIN =K:  p6s1

   TITEL  = PAW_PBE K_pv 17Jan2003
   POMASS =   39.098; ZVAL   =    7.000    mass and valenz
   ENMAX  =  116.731; ENMIN  =   87.548 eV

 POTCAR:    PAW_PBE Sb 06Sep2000
   VRHFIN =Sb: s2p3

   TITEL  = PAW_PBE Sb 06Sep2000
   POMASS =  121.750; ZVAL   =    5.000    mass and valenz
   ENMAX  =  172.069; ENMIN  =  129.052 eV

 POTCAR:    PAW_PBE S 06Sep2000
   VRHFIN =S : s2p4

   TITEL  = PAW_PBE S 06Sep2000
   POMASS =   32.066; ZVAL   =    6.000    mass and valenz
   ENMAX  =  258.689; ENMIN  =  194.016 eV

 Optimization of the real space projectors (new method)

 maximal supplied QI-value         = 12.09
 optimisation between [QCUT,QGAM] = [  8.83, 17.66] = [ 21.83, 87.31] Ry
 Optimized for a Real-space Cutoff    1.69 Angstroem

   l    n(q)    QCUT    max X(q) W(low)/X(q) W(high)/X(q)  e(spline)
   1      8     8.829    42.457    0.27E-03    0.59E-03    0.25E-06
   1      8     8.829    43.305    0.28E-03    0.61E-03    0.26E-06
   0      9     8.829    47.210    0.17E-02    0.12E-03    0.43E-06
   0      9     8.829    15.951    0.11E-02    0.76E-04    0.28E-06
   2      8     8.829     5.674    0.29E-03    0.69E-04    0.39E-07
 Optimization of the real space projectors (new method)

[...]

   l    n(q)    QCUT    max X(q) W(low)/X(q) W(high)/X(q)  e(spline)
   0      7     8.776    19.000    0.12E-02    0.42E-03    0.95E-07
   0      7     8.776     9.057    0.14E-02    0.54E-03    0.11E-06
   1      6     8.776   125.345    0.45E-03    0.22E-02    0.77E-07
   1      6     8.776    79.963    0.45E-03    0.21E-02    0.76E-07
   2      6     8.776     6.963    0.11E-02    0.51E-03    0.39E-07
 Optimization of the real space projectors (new method)

 maximal supplied QI-value         = 19.84
 optimisation between [QCUT,QGAM] = [  8.73, 17.66] = [ 21.34, 87.33] Ry
 Optimized for a Real-space Cutoff    1.22 Angstroem

   l    n(q)    QCUT    max X(q) W(low)/X(q) W(high)/X(q)  e(spline)
   0      6     8.731   187.594    0.15E-02    0.56E-03    0.90E-07
   0      6     8.731   164.243    0.15E-02    0.56E-03    0.89E-07
   1      6     8.731    67.533    0.37E-03    0.20E-02    0.11E-06
   1      6     8.731    50.729    0.36E-03    0.19E-02    0.10E-06
  PAW_PBE K_pv 17Jan2003                :
  PAW_PBE Sb 06Sep2000                  :
  PAW_PBE S 06Sep2000                   :

 POSCAR: K4 Sb8 S14
  positions in direct lattice
  velocities in cartesian coordinates
 exchange correlation table for  LEXCH =        8
   RHO(1)=    0.500       N(1)  =     2000
   RHO(2)=  100.500       N(2)  =     4000

 ion  position               nearest neighbor table
   1  0.280  0.335  0.113-  22 3.19  25 3.21  19 3.24  14 3.24  26 3.32  18 3.34   6 3.99   7 4.27
                             7 4.27  11 4.31   8 4.32  11 4.44  12 4.49   9 4.54   3 4.74   4 4.97
   2  0.421  0.737  0.565-  23 3.20  24 3.37  16 3.39  25 3.45  21 3.51  15 3.62  17 3.91  12 3.96
                             6 4.44   8 4.53   9 4.55   4 4.74   3 4.91   3 5.38
   3  0.579  0.263  0.435-  22 3.20  16 3.37  24 3.39  15 3.45  19 3.51  25 3.62  20 3.91   8 3.96
                            11 4.44  12 4.53   7 4.55   1 4.74   2 4.91   2 5.38
   4  0.720  0.665  0.887-  23 3.19  15 3.21  21 3.24  18 3.24  13 3.32  14 3.34  11 3.99   9 4.27
                             9 4.27   6 4.31  12 4.32   6 4.44   8 4.49   7 4.54   2 4.74   1 4.97
   5  0.029  0.949  0.340-  24 2.45  17 2.51  16 2.69  13 2.80  10 3.65
   6  0.156  0.438  0.814-  15 2.48  20 2.49  23 2.51  26 3.11   1 3.99   4 4.31   4 4.44   2 4.44

   7  0.732  0.132  0.046-  19 2.46  14 2.57  22 2.63  21 3.00  13 3.17   1 4.27   1 4.27   4 4.54
                             3 4.55
   8  0.504  0.193  0.767-  26 2.46  14 2.52  15 2.67  21 2.90   3 3.96   1 4.32   4 4.49   2 4.53

   9  0.268  0.868  0.954-  21 2.46  18 2.57  23 2.63  19 3.00  26 3.17   4 4.27   4 4.27   1 4.54
                             2 4.55
  10  0.971  0.051  0.660-  16 2.45  20 2.51  24 2.69  26 2.80   5 3.65
  11  0.844  0.562  0.186-  25 2.48  17 2.49  22 2.51  13 3.11   4 3.99   1 4.31   1 4.44   3 4.44

  12  0.496  0.807  0.233-  13 2.46  18 2.52  25 2.67  19 2.90   2 3.96   4 4.32   1 4.49   3 4.53

  13  0.807  0.867  0.148-  12 2.46   5 2.80  11 3.11   7 3.17   4 3.32
  14  0.651  0.331  0.952-   8 2.52   7 2.57   1 3.24   4 3.34
  15  0.455  0.437  0.708-   6 2.48   8 2.67   4 3.21   3 3.45   2 3.62
  16  0.234  0.014  0.529-  10 2.45   5 2.69   3 3.37   2 3.39
  17  0.033  0.692  0.353-  11 2.49   5 2.51   2 3.91
  18  0.349  0.669  0.048-  12 2.52   9 2.57   4 3.24   1 3.34
  19  0.444  0.068  0.160-   7 2.46  12 2.90   9 3.00   1 3.24   3 3.51
  20  0.967  0.308  0.647-   6 2.49  10 2.51   3 3.91
  21  0.556  0.932  0.840-   9 2.46   8 2.90   7 3.00   4 3.24   2 3.51
  22  0.877  0.320  0.224-  11 2.51   7 2.63   1 3.19   3 3.20
  23  0.123  0.680  0.776-   6 2.51   9 2.63   4 3.19   2 3.20
  24  0.766  0.986  0.471-   5 2.45  10 2.69   2 3.37   3 3.39
  25  0.545  0.563  0.292-  11 2.48  12 2.67   1 3.21   2 3.45   3 3.62
  26  0.193  0.133  0.852-   8 2.46  10 2.80   6 3.11   9 3.17   1 3.32

  LATTYP: Found a triclinic cell.
 ALAT       =    26.3227242842
 B/A-ratio  =     0.4373935677
 C/A-ratio  =     0.6110405317
 COS(alpha) =     0.0173075482
 COS(beta)  =     0.3913384800
 COS(gamma) =     0.9118262969

  Lattice vectors:

 A1 = (   3.9374125440, -13.2401472433, -22.4071662014)
 A2 = (  -0.7553847794,  -1.9293856589, -11.3254148141)
 A3 = (  13.0550481695,  -9.3846061856,   0.4450039493)

Analysis of symmetry for initial positions (statically):
 Subroutine PRICEL returns:
 Original cell was already a primitive cell.

 Routine SETGRP: Setting up the symmetry group for a
 triclinic supercell.

 Subroutine GETGRP returns: Found  2 space group operations
 (whereof  2 operations were pure point group operations)
 out of a pool of  2 trial point group operations.

The static configuration has the point symmetry S_2 .

Analysis of symmetry for dynamics (positions and initial velocities):
 Subroutine PRICEL returns:
 Original cell was already a primitive cell.

 Routine SETGRP: Setting up the symmetry group for a
 triclinic supercell.

 Subroutine GETGRP returns: Found  2 space group operations
 (whereof  2 operations were pure point group operations)
 out of a pool of  2 trial point group operations.

The dynamic configuration has the point symmetry S_2 .

 Subroutine INISYM returns: Found  2 space group operations
 (whereof  2 operations are pure point group operations),
 and found     1 'primitive' translations

 KPOINTS: pymatgen with grid density = 807 / numbe

Automatic generation of k-mesh.
Space group operators:
 irot       det(A)        alpha          n_x          n_y          n_z        tau_x        tau_y        tau_z
    1     1.000000     0.000000     1.000000     0.000000     0.000000     0.000000     0.000000     0.000000
    2    -1.000000     0.000000     1.000000     0.000000     0.000000     0.000000     0.000000     0.000000

 Subroutine IBZKPT returns following result:

 Found      6 irreducible k-points:

 Following reciprocal coordinates:
            Coordinates               Weight
  0.000000  0.250000  0.250000      2.000000
  0.333333  0.250000  0.250000      2.000000
 -0.333333  0.250000  0.250000      2.000000
  0.000000 -0.250000  0.250000      2.000000
  0.333333 -0.250000  0.250000      2.000000
 -0.333333 -0.250000  0.250000      2.000000

 Following cartesian coordinates:
            Coordinates               Weight
  0.000716  0.026373 -0.026615      2.000000
 -0.043132  0.036471 -0.025411      2.000000
  0.044563  0.016274 -0.027819      2.000000
  0.000453 -0.026841 -0.017532      2.000000
 -0.043395 -0.016743 -0.016328      2.000000
  0.044300 -0.036939 -0.018736      2.000000

 SYSTEM =  CIS
 POSCAR =  K4 Sb8 S14

 Startparameter for this run:
   NWRITE =      2    write-flag & timer
   PREC   = medium    normal or accurate (medium, high low for compatibility)
   ISTART =      0    job   : 0-new  1-cont  2-samecut
   ICHARG =      2    charge: 1-file 2-atom 10-const
   ISPIN  =      1    spin polarized calculation?
   LNONCOLLINEAR =      F non collinear calculations
   LSORBIT =      F    spin-orbit coupling
   INIWAV =      1    electr: 0-lowe 1-rand  2-diag
   LASPH  =      T    aspherical Exc in radial PAW
   METAGGA=      F    non-selfconsistent MetaGGA calc.

 Electronic Relaxation 1
   ENCUT  =  300.0 eV  22.05 Ry    4.70 a.u.  10.75 13.59 16.26*2*pi/ulx,y,z
   ENINI  =  300.0     initial cutoff
   ENAUG  =  380.5 eV  augmentation charge cutoff
   NELM   =     60;   NELMIN=  2; NELMDL= -5     # of ELM steps
   EDIFF  = 0.1E-03   stopping-criterion for ELM
   LREAL  =      T    real-space projection
   NLSPLINE    = F    spline interpolate recip. space projectors
   LCOMPAT=      F    compatible to vasp.4.4
   GGA_COMPAT  = T    GGA compatible to vasp.4.4-vasp.4.6
   LMAXPAW     = -100 max onsite density
   LMAXMIX     =    4 max onsite mixed and CHGCAR
   VOSKOWN=      0    Vosko Wilk Nusair interpolation
   ROPT   =   -0.00200  -0.00200  -0.00200
 Ionic relaxation
   EDIFFG = -.5E-01   stopping-criterion for IOM
   NSW    =     99    number of steps for IOM
   NBLOCK =      1;   KBLOCK =     99    inner block; outer block
   IBRION =      2    ionic relax: 0-MD 1-quasi-New 2-CG
   NFREE  =      1    steps in history (QN), initial steepest desc. (CG)
   ISIF   =      3    stress and relaxation
   IWAVPR =     11    prediction:  0-non 1-charg 2-wave 3-comb
   ISYM   =      2    0-nonsym 1-usesym 2-fastsym
   LCORR  =      T    Harris-Foulkes like correction to forces

   POTIM  = 0.1000    time-step for ionic-motion
   TEIN   =    0.0    initial temperature
   TEBEG  =    0.0;   TEEND  =   0.0 temperature during run
   SMASS  =  -3.00    Nose mass-parameter (am)
   estimated Nose-frequenzy (Omega)   =  0.10E-29 period in steps =****** mass=  -0.132E-26a.u.
   SCALEE = 1.0000    scale energy and forces
   NPACO  =    256;   APACO  = 16.0  distance and # of slots for P.C.
   PSTRESS=    0.0 pullay stress

  Mass of Ions in am
   POMASS =  39.10121.75 32.07
  Ionic Valenz
   ZVAL   =   7.00  5.00  6.00
  Atomic Wigner-Seitz radii
  virtual crystal weights
   VCA    =   1.00  1.00  1.00
   NELECT =     152.0000    total number of electrons
   NUPDOWN=      -1.0000    fix difference up-down

 DOS related values:
   EMIN   =  10.00;   EMAX   =-10.00  energy-range for DOS
   EFERMI =   0.00
   ISMEAR =     0;   SIGMA  =   0.05  broadening in eV -4-tet -1-fermi 0-gaus

 Electronic relaxation 2 (details)
   IALGO  =     38    algorithm
   LDIAG  =      T    sub-space diagonalisation (order eigenvalues)
   LSUBROT=      F    optimize rotation matrix (better conditioning)
   TURBO    =      0    0=normal 1=particle mesh
   IRESTART =      0    0=no restart 2=restart with 2 vectors
   NREBOOT  =      0    no. of reboots
   NMIN     =      0    reboot dimension
[...]

 Conjugate gradient step on ions:
 trial-energy change:   -0.002423  1 .order   -0.002556   -0.003591   -0.001521
  (g-gl).g = 0.650E-03      g.g   = 0.308E-02  gl.gl    = 0.289E-02
 g(Force)  = 0.293E-02   g(Stress)= 0.151E-03 ortho     = 0.482E-03
 gamma     =   0.22516
 trial     =   1.12525
 opt step  =   1.95188  (harmonic =   1.95188) maximal distance =0.00312893
 next E    =  -109.548606   (d E  =  -0.00311)

[...]

 Conjugate gradient step on ions:
 trial-energy change:   -0.001234  1 .order   -0.001153   -0.002086   -0.000221
  (g-gl).g = 0.115E-02      g.g   = 0.123E-02  gl.gl    = 0.308E-02
 g(Force)  = 0.112E-02   g(Stress)= 0.112E-03 ortho     = 0.154E-03
 gamma     =   0.37149
 trial     =   1.62123
 opt step  =   1.81303  (harmonic =   1.81303) maximal distance =0.00280219
 next E    =  -109.550916   (d E  =  -0.00117)

[...]

 d Force = 0.8986412E-05[-0.186E-05, 0.198E-04]  d Energy =-0.2155007E-05 0.111E-04
 d Force = 0.2198081E-01[ 0.220E-01, 0.220E-01]  d Ewald  = 0.3722117E-01-0.152E-01

[...]

 d Force = 0.8807987E-03[ 0.586E-03, 0.118E-02]  d Energy = 0.1008038E-02-0.127E-03
 d Force =-0.2008726E+00[-0.202E+00,-0.199E+00]  d Ewald  = 0.4447530E+00-0.646E+00

[...]

 d Force = 0.1668899E-03[-0.304E-03, 0.637E-03]  d Energy = 0.3653639E-03-0.198E-03
 d Force =-0.2217427E+00[-0.223E+00,-0.220E+00]  d Ewald  = 0.4807273E+00-0.702E+00

[...]

 d Force = 0.5308880E-05[-0.756E-04, 0.862E-04]  d Energy =-0.2437844E-04 0.297E-04
 d Force = 0.6329492E-01[ 0.632E-01, 0.634E-01]  d Ewald  =-0.1361365E+00 0.199E+00

[...]

 d Force = 0.1492391E-04[-0.646E-05, 0.363E-04]  d Energy = 0.3247049E-04-0.175E-04
 d Force =-0.3036898E-01[-0.304E-01,-0.303E-01]  d Ewald  = 0.6542611E-01-0.958E-01

[...]

 d Force = 0.2469863E-05[-0.128E-04, 0.177E-04]  d Energy =-0.1380588E-04 0.163E-04
 d Force = 0.1786262E-01[ 0.178E-01, 0.179E-01]  d Ewald  = 0.3027705E-01-0.124E-01

[...]

 eigenvalues of (default mixing * dielectric matrix)
  average eigenvalue GAMMA=   0.7969
  0.7969

[...]

 eigenvalue-minimisations  :   672
 total energy-change (2. order) : 0.3178737E-04  (-0.2404704E-05)
 number of electron     152.0000206 magnetization
 augmentation part       -3.1217939 magnetization

[...]

 d Force =-0.4954370E-08[-0.378E-07, 0.279E-07]  d Energy =-0.1166521E-04 0.117E-04
 d Force = 0.3990497E-02[ 0.399E-02, 0.399E-02]  d Ewald  = 0.6893137E-02-0.290E-02

[...]

 Broyden mixing:
  rms(total) = 0.46098E-02    rms(broyden)= 0.46089E-02
  rms(prec ) = 0.49236E-02
  weight for this iteration     100.00

[...]

--------------------------------------- Iteration     28(   2)  ---------------------------------------

 eigenvalue-minimisations  :  1190
 total energy-change (2. order) :-0.1609908E-04  (-0.3208777E-04)
 number of electron     152.0000201 magnetization
 augmentation part       -3.1213582 magnetization

 Free energy of the ion-electron system (eV)
  alpha Z        PSCENC =       190.51521471
  Ewald energy   TEWEN  =     -5344.19192312
  -Hartree energ DENC   =     -1513.59246291
  -exchange      EXHF   =         0.00000000
  -V(xc)+E(xc)   XCENC  =      -147.87798540
  PAW double counting   =     11226.47680739   -10737.66580689
  entropy T*S    EENTRO =        -0.00000000
  eigenvalues    EBANDS =      -660.15147712
  atomic energy  EATOM  =      6876.93431449
  Solvation  Ediel_sol  =         0.00000000
  free energy    TOTEN  =      -109.55331887 eV

  energy without entropy =     -109.55331887  energy(sigma->0) =     -109.55331887

 average (electrostatic) potential at core
  the test charge radii are     1.3383  1.1712  0.9698
  (the norm of the test charge is              1.0000)
       1 -11.3283       2 -11.7171       3 -11.7171       4 -11.3283       5 -90.8705
       6 -90.7810       7 -90.8381       8 -90.9021       9 -90.8381      10 -90.8705
      11 -90.7810      12 -90.9021      13 -88.7107      14 -88.8550      15 -88.6097
      16 -88.6612      17 -88.8761      18 -88.8550      19 -88.6347      20 -88.8761
      21 -88.6347      22 -88.6254      23 -88.6254      24 -88.6612      25 -88.6097
      26 -88.7107

 E-fermi :   2.0453     XC(G=0):  -8.0070     alpha+bet : -7.9703

[...]

 k-point     6 :      -0.3333   -0.2500    0.2500
  band No.  band energies     occupation
      1     -11.4706      2.00000
      2     -11.3212      2.00000
      3     -11.2222      2.00000
      4     -11.1990      2.00000
      5     -11.1675      2.00000
      6     -11.1547      2.00000
      7     -11.1310      2.00000
      8     -11.1143      2.00000
      9     -11.0579      2.00000
     10     -10.9164      2.00000
     11     -10.8764      2.00000
     12     -10.8376      2.00000
     13     -10.8294      2.00000
     14     -10.7697      2.00000
     15     -10.6955      2.00000
     16     -10.5646      2.00000
     17     -10.4716      2.00000
     18     -10.2910      2.00000
     19     -10.0098      2.00000
     20      -9.9265      2.00000
     21      -9.8154      2.00000
     22      -9.7573      2.00000
     23      -9.6456      2.00000
     24      -9.6216      2.00000
     25      -9.5131      2.00000
     26      -9.4837      2.00000
     27      -6.8578      2.00000
     28      -6.6069      2.00000
     29      -6.4033      2.00000
     30      -6.3403      2.00000
     31      -5.8069      2.00000
     32      -5.5461      2.00000
     33      -5.3071      2.00000
     34      -4.8982      2.00000
     35      -2.5933      2.00000
     36      -2.3970      2.00000
     37      -2.1224      2.00000
     38      -2.0472      2.00000
     39      -1.9169      2.00000
     40      -1.8663      2.00000
     41      -1.7514      2.00000
     42      -1.6254      2.00000
     43      -1.4996      2.00000
     44      -1.3300      2.00000
     45      -1.2584      2.00000
     46      -0.9747      2.00000
     47      -0.9031      2.00000
     48      -0.7844      2.00000
     49      -0.7424      2.00000
     50      -0.6032      2.00000
     51      -0.5466      2.00000
     52      -0.4477      2.00000
     53      -0.4072      2.00000
     54      -0.3359      2.00000
     55      -0.3106      2.00000
     56      -0.0802      2.00000
     57       0.0301      2.00000
     58       0.2215      2.00000
     59       0.3986      2.00000
     60       0.4941      2.00000
[...]
     84       4.7015      0.00000
     85       4.8528      0.00000
     86       4.8846      0.00000
     87       5.1001      0.00000
     88       5.2214      0.00000
     89       5.3547      0.00000
     90       5.4396      0.00000
     91       5.6127      0.00000
     92       5.7281      0.00000
     93       5.8263      0.00000
     94       5.9022      0.00000
     95       6.0786      0.00000
     96       6.1114      0.00000
     97       6.2961      0.00000
     98       6.3709      0.00000

 soft charge-density along one line, spin component           1
         0         1         2         3         4         5         6         7         8         9
 total charge-density along one line

------------------------ aborting loop because EDIFF is reached ----------------------------------------

[...]

  FORCE on cell =-STRESS in cart. coord.  units (eV):
  Direction    XX          YY          ZZ          XY          YZ          ZX
  Alpha Z   190.51521   190.51521   190.51521
  Ewald   -1737.17752 -1660.80460 -1946.22915    70.24208  -205.54593   148.61843
  Hartree   528.69488   592.15177   392.61308    50.13175  -143.50914    81.11967
  E(xc)    -560.31791  -558.83090  -559.97448     0.28782    -0.45203     1.66164
  Local   -1179.09145 -1316.78298  -845.06841  -118.17644   345.50002  -216.33603
  n-local  1584.34813  1573.21146  1580.84814    -2.00314     2.07382   -12.42707
  augment  -355.55669  -354.36942  -357.30098     0.44657    -0.92500     2.64920
  Kinetic  1528.53804  1535.04853  1544.42652    -0.94447     2.86342    -5.37174
  Fock        0.00000     0.00000     0.00000     0.00000     0.00000     0.00000
  Total      -0.04731     0.13908    -0.17007    -0.01583     0.00516    -0.08590
  in kB      -0.09390     0.27601    -0.33750    -0.03141     0.01024    -0.17048

 VOLUME and BASIS-vectors are now :
  energy-cutoff  :      300.00
  volume of cell :      807.33
      direct lattice vectors                 reciprocal lattice vectors
    -7.600689376  0.022171021 -0.201387841    -0.131575769  0.029977358  0.003630681
     2.133715119  9.371038156 -0.047859168     0.000790086  0.106439422 -0.018101018
    -0.750061900 -1.920458835-11.325613679     0.002336293 -0.000982832 -0.088283505

  length of vectors
     7.603389219  9.611003425 11.511745315     0.134996321  0.107970466  0.088319882

 FORCES acting on ions
    electron-ion (+dipol)            ewald-force                    non-local-force                 convergence-correction
   -.411E+02 0.153E+02 0.533E+02   0.405E+02 -.151E+02 -.533E+02   0.650E+00 -.119E+00 0.185E-01   0.173E-02 -.145E-02 0.215E-03
   0.818E+01 0.404E+02 -.252E+02   -.771E+01 -.399E+02 0.246E+02   -.473E+00 -.530E+00 0.596E+00   -.663E-03 0.262E-02 -.237E-02
   -.818E+01 -.404E+02 0.252E+02   0.771E+01 0.399E+02 -.246E+02   0.473E+00 0.530E+00 -.596E+00   0.663E-03 -.262E-02 0.237E-02
   0.411E+02 -.153E+02 -.533E+02   -.405E+02 0.151E+02 0.533E+02   -.650E+00 0.119E+00 -.185E-01   -.173E-02 0.145E-02 -.215E-03
   0.189E+02 -.409E+02 -.110E+02   -.237E+02 0.492E+02 0.176E+02   0.481E+01 -.836E+01 -.659E+01   0.151E-03 -.350E-02 0.395E-02
   -.250E+02 0.890E+00 0.909E+01   0.263E+02 -.469E+01 -.205E+02   -.137E+01 0.379E+01 0.114E+02   0.680E-03 -.120E-02 0.281E-04
   0.538E+02 0.310E+01 -.845E+01   -.628E+02 -.754E+01 0.134E+02   0.902E+01 0.442E+01 -.492E+01   0.128E-02 0.119E-03 0.212E-02
   0.278E+02 0.649E+00 -.546E+02   -.332E+02 -.334E+01 0.641E+02   0.534E+01 0.270E+01 -.947E+01   0.276E-03 0.239E-03 -.355E-02
   -.538E+02 -.310E+01 0.845E+01   0.628E+02 0.754E+01 -.134E+02   -.902E+01 -.442E+01 0.492E+01   -.128E-02 -.119E-03 -.212E-02
   -.189E+02 0.409E+02 0.110E+02   0.237E+02 -.492E+02 -.176E+02   -.481E+01 0.836E+01 0.659E+01   -.151E-03 0.350E-02 -.395E-02
   0.250E+02 -.890E+00 -.909E+01   -.263E+02 0.469E+01 0.205E+02   0.137E+01 -.379E+01 -.114E+02   -.680E-03 0.120E-02 -.281E-04
   -.278E+02 -.649E+00 0.546E+02   0.332E+02 0.334E+01 -.641E+02   -.534E+01 -.270E+01 0.947E+01   -.276E-03 -.239E-03 0.355E-02
   0.527E+02 -.325E+02 -.164E+02   -.552E+02 0.338E+02 0.191E+02   0.247E+01 -.125E+01 -.271E+01   0.205E-03 -.432E-02 0.277E-03
   0.334E+02 -.388E+02 -.384E+01   -.330E+02 0.431E+02 0.256E+01   -.375E+00 -.424E+01 0.127E+01   -.389E-02 -.517E-02 0.250E-02
   0.334E+02 -.439E+02 -.803E+02   -.355E+02 0.462E+02 0.824E+02   0.206E+01 -.228E+01 -.209E+01   0.465E-02 -.448E-02 -.920E-02
   0.338E+02 -.699E-02 -.151E+02   -.376E+02 0.618E-01 0.157E+02   0.380E+01 -.348E-01 -.658E+00   -.266E-03 -.447E-02 -.367E-02
   0.322E+02 0.582E+02 0.712E+02   -.346E+02 -.603E+02 -.750E+02   0.242E+01 0.210E+01 0.377E+01   0.722E-02 0.885E-03 0.138E-01
   -.334E+02 0.388E+02 0.384E+01   0.330E+02 -.431E+02 -.256E+01   0.375E+00 0.424E+01 -.127E+01   0.389E-02 0.517E-02 -.250E-02
   -.523E+02 -.660E+01 0.603E+02   0.552E+02 0.721E+01 -.625E+02   -.294E+01 -.597E+00 0.219E+01   -.462E-02 -.491E-02 0.493E-02
   -.322E+02 -.582E+02 -.712E+02   0.346E+02 0.603E+02 0.750E+02   -.242E+01 -.210E+01 -.377E+01   -.722E-02 -.885E-03 -.138E-01
   0.523E+02 0.660E+01 -.603E+02   -.552E+02 -.721E+01 0.625E+02   0.294E+01 0.597E+00 -.219E+01   0.462E-02 0.491E-02 -.493E-02
   0.513E+02 0.152E+02 0.671E+02   -.535E+02 -.171E+02 -.701E+02   0.221E+01 0.188E+01 0.300E+01   0.341E-02 0.124E-01 0.122E-01
   -.513E+02 -.152E+02 -.671E+02   0.535E+02 0.171E+02 0.701E+02   -.221E+01 -.188E+01 -.300E+01   -.341E-02 -.124E-01 -.122E-01
   -.338E+02 0.699E-02 0.151E+02   0.376E+02 -.618E-01 -.157E+02   -.380E+01 0.348E-01 0.658E+00   0.266E-03 0.447E-02 0.367E-02
   -.334E+02 0.439E+02 0.803E+02   0.355E+02 -.462E+02 -.824E+02   -.206E+01 0.228E+01 0.209E+01   -.465E-02 0.448E-02 0.920E-02
   -.527E+02 0.325E+02 0.164E+02   0.552E+02 -.338E+02 -.191E+02   -.247E+01 0.125E+01 0.271E+01   -.205E-03 0.432E-02 -.277E-03
   0.381E-11 0.303E-10 -.502E-10   -.426E-13 -.355E-13 -.213E-13   -.222E-14 0.222E-15 0.355E-14   -.163E-12 0.357E-12 -.113E-11

 POSITION                                       TOTAL-FORCE (eV/Angst)
     -1.50017      2.93057     -1.35387         0.001233      0.012984      0.005900
     -2.05384      5.82440     -6.51805        -0.000884     -0.004295      0.008093
     -4.16320      1.64835     -5.05681         0.000884      0.004295     -0.008093
     -4.71687      4.54218    -10.22099        -0.001233     -0.012984     -0.005900
      1.54647      8.23330     -3.91126         0.005161     -0.022487     -0.003168
     -0.85781      2.57121     -9.26967         0.018820     -0.011370      0.031210
     -5.29921      1.17368     -0.69164        -0.020605     -0.022601     -0.002587
     -4.00682      0.33544     -8.80866        -0.032305      0.007936     -0.024113
     -0.91783      6.29907    -10.88322         0.020605      0.022601      0.002587
     -7.76350     -0.76055     -7.66360        -0.005161      0.022487      0.003168
     -5.35923      4.90154     -2.30519        -0.018820      0.011370     -0.031210
     -2.21021      7.13731     -2.76620         0.032305     -0.007936      0.024113
     -4.38815      7.85425     -1.88264         0.001351      0.000723      0.003044
     -4.95396      1.29608    -10.93238         0.003780      0.013290      0.000558
     -3.05154      2.74936     -8.13129         0.001501      0.008885      0.006150
     -2.14835     -0.86790     -6.03331        -0.008918      0.015478      0.010368
      0.95475      5.80488     -4.03147        -0.017206     -0.014485     -0.002421
     -1.26307      6.17667     -0.64248        -0.003780     -0.013290     -0.000558
     -3.33355      0.34183     -1.90506        -0.003819      0.007139      0.005407
     -7.17178      1.66787     -7.54339         0.017206      0.014485      0.002421
     -2.88349      7.13092     -9.66980         0.003819     -0.007139     -0.005407
     -6.16881      2.56891     -2.74428         0.000928     -0.002988     -0.009812
     -0.04823      4.90384     -8.83058        -0.000928      0.002988      0.009812
     -4.06869      8.34065     -5.54155         0.008918     -0.015478     -0.010368
     -3.16549      4.72339     -3.44357        -0.001501     -0.008885     -0.006150
     -1.82888     -0.38150     -9.69222        -0.001351     -0.000723     -0.003044
    total drift:                                0.000000      0.000000     -0.000000

  FREE ENERGIE OF THE ION-ELECTRON SYSTEM (eV)
  free  energy   TOTEN  =      -109.55331887 eV

  energy  without entropy=     -109.55331887  energy(sigma->0) =     -109.55331887

 d Force = 0.2020044E-03[ 0.140E-03, 0.264E-03]  d Energy = 0.2561288E-03-0.541E-04
 d Force = 0.2288033E+00[ 0.229E+00, 0.229E+00]  d Ewald  = 0.4381504E+00-0.209E+00

 Conjugate gradient step on ions:
 trial-energy change:   -0.000256  1 .order   -0.000219   -0.000277   -0.000161
  (g-gl).g = 0.183E-03      g.g   = 0.215E-03  gl.gl    = 0.542E-03
 g(Force)  = 0.197E-03   g(Stress)= 0.186E-04 ortho     =-0.276E-04
 gamma     =   0.33747
 trial     =   1.34529
 opt step  =   3.21715  (harmonic =   3.21715) maximal distance =0.00145942
 next E    =  -109.553394   (d E  =  -0.00033)

 reached required accuracy - stopping structural energy minimisation

 total charge

# of ion       s       p       d       tot
    1        0.074   6.081   0.071   6.226
    2        0.054   6.032   0.048   6.134
    3        0.054   6.032   0.048   6.134
    4        0.074   6.081   0.071   6.226
    5        1.258   0.968   0.069   2.296
    6        1.249   0.994   0.069   2.312
    7        1.279   0.939   0.067   2.285
    8        1.268   0.950   0.068   2.286
    9        1.279   0.939   0.067   2.285
   10        1.258   0.968   0.069   2.296
   11        1.249   0.994   0.069   2.312
   12        1.268   0.950   0.068   2.286
   13        1.355   2.344   0.000   3.699
   14        1.351   2.355   0.000   3.706
   15        1.347   2.359   0.000   3.707
   16        1.350   2.354   0.000   3.704
   17        1.360   2.328   0.000   3.688
   18        1.351   2.355   0.000   3.706
   19        1.353   2.352   0.000   3.704
   20        1.360   2.328   0.000   3.688
   21        1.353   2.352   0.000   3.704
   22        1.350   2.356   0.000   3.706
   23        1.350   2.356   0.000   3.706
   24        1.350   2.354   0.000   3.704
   25        1.347   2.359   0.000   3.707
   26        1.355   2.344   0.000   3.699
tot         29.299  64.822   0.787  94.908