 vasp.5.4.4.18Apr17-6-g9f103f2a35 (build Oct 27 2022 13:04:57) complex

 executed on             LinuxIFC date 2024.06.29  19:12:45

 INCAR:
 POTCAR:    PAW_PBE Na 08Apr2002
 POTCAR:    PAW_PBE Sb 06Sep2000
 POTCAR:    PAW_PBE S 06Sep2000

 POTCAR:    PAW_PBE Na 08Apr2002
   VRHFIN =Na: s1p0

   TITEL  = PAW_PBE Na 08Apr2002
   POMASS =   22.990; ZVAL   =    1.000    mass and valenz
   ENMAX  =  101.968; ENMIN  =   76.476 eV

 POTCAR:    PAW_PBE Sb 06Sep2000
   VRHFIN =Sb: s2p3

   TITEL  = PAW_PBE Sb 06Sep2000
   POMASS =  121.750; ZVAL   =    5.000    mass and valenz
   ENMAX  =  172.069; ENMIN  =  129.052 eV

 POTCAR:    PAW_PBE S 06Sep2000
   VRHFIN =S : s2p4

   TITEL  = PAW_PBE S 06Sep2000
   POMASS =   32.066; ZVAL   =    6.000    mass and valenz
   ENMAX  =  258.689; ENMIN  =  194.016 eV

 Optimization of the real space projectors (new method)

 maximal supplied QI-value         = 17.01
 optimisation between [QCUT,QGAM] = [  8.84, 17.69] = [ 21.90, 87.61] Ry
 Optimized for a Real-space Cutoff    1.22 Angstroem

   l    n(q)    QCUT    max X(q) W(low)/X(q) W(high)/X(q)  e(spline)
   0      6     8.844    45.123    0.62E-03    0.70E-03    0.80E-07
   0      6     8.844    12.364    0.51E-03    0.48E-03    0.55E-07
   1      6     8.844     8.302    0.36E-03    0.27E-03    0.23E-07
 Optimization of the real space projectors (new method)

[...]

   l    n(q)    QCUT    max X(q) W(low)/X(q) W(high)/X(q)  e(spline)
   0      7     8.776    19.000    0.12E-02    0.42E-03    0.95E-07
   0      7     8.776     9.057    0.14E-02    0.54E-03    0.11E-06
   1      6     8.776   125.345    0.45E-03    0.22E-02    0.77E-07
   1      6     8.776    79.963    0.45E-03    0.21E-02    0.76E-07
   2      6     8.776     6.963    0.11E-02    0.51E-03    0.39E-07
 Optimization of the real space projectors (new method)

 maximal supplied QI-value         = 19.84
 optimisation between [QCUT,QGAM] = [  8.73, 17.66] = [ 21.34, 87.33] Ry
 Optimized for a Real-space Cutoff    1.22 Angstroem

   l    n(q)    QCUT    max X(q) W(low)/X(q) W(high)/X(q)  e(spline)
   0      6     8.731   187.594    0.15E-02    0.56E-03    0.90E-07
   0      6     8.731   164.243    0.15E-02    0.56E-03    0.89E-07
   1      6     8.731    67.533    0.37E-03    0.20E-02    0.11E-06
   1      6     8.731    50.729    0.36E-03    0.19E-02    0.10E-06
  PAW_PBE Na 08Apr2002                  :
  PAW_PBE Sb 06Sep2000                  :
  PAW_PBE S 06Sep2000                   :

 POSCAR: Na4 Sb8 S14
  positions in direct lattice
  velocities in cartesian coordinates
 exchange correlation table for  LEXCH =        8
   RHO(1)=    0.500       N(1)  =     2000
   RHO(2)=  100.500       N(2)  =     4000

 ion  position               nearest neighbor table
   1  0.312  0.340  0.120-  19 2.87  25 2.91  22 2.94  14 2.95  18 3.06  26 3.15   7 3.95   3 4.21

   2  0.422  0.767  0.592-  23 2.92  21 2.94  24 3.00  16 3.03  15 3.31  12 3.86   9 3.97   4 4.21

[...]

   5  0.027  0.948  0.335-  24 2.46  17 2.51  16 2.72  13 2.80  10 3.58  12 3.78
   6  0.138  0.448  0.815-  20 2.50  15 2.51  23 2.57  26 2.96  18 3.20
   7  0.750  0.131  0.052-  19 2.45  22 2.59  14 2.63  13 3.03  21 3.16   1 3.95   3 3.97
   8  0.523  0.211  0.760-  26 2.52  14 2.53  15 2.62  21 2.99  20 3.27  10 3.78   3 3.86
   9  0.250  0.869  0.948-  21 2.45  23 2.59  18 2.63  26 3.03  19 3.16   4 3.95   2 3.97
  10  0.973  0.052  0.665-  16 2.46  20 2.51  24 2.72  26 2.80   5 3.58   8 3.78
  11  0.862  0.552  0.185-  17 2.50  25 2.51  22 2.57  13 2.96  14 3.20
  12  0.477  0.789  0.240-  13 2.52  18 2.53  25 2.62  19 2.99  17 3.27   5 3.78   2 3.86
  13  0.810  0.846  0.133-  12 2.52   5 2.80  11 2.96   7 3.03   4 3.15
  14  0.668  0.350  0.954-   8 2.53   7 2.63   1 2.95   4 3.06  11 3.20
  15  0.463  0.459  0.698-   6 2.51   8 2.62   4 2.91   2 3.31
  16  0.259  0.019  0.523-  10 2.46   5 2.72   3 3.00   2 3.03
  17  0.042  0.687  0.363-  11 2.50   5 2.51  12 3.27
  18  0.332  0.650  0.046-  12 2.53   9 2.63   4 2.95   1 3.06   6 3.20
  19  0.438  0.082  0.171-   7 2.45   1 2.87   3 2.94  12 2.99   9 3.16
  20  0.958  0.313  0.637-   6 2.50  10 2.51   8 3.27
  21  0.562  0.918  0.829-   9 2.45   4 2.87   2 2.94   8 2.99   7 3.16
  22  0.916  0.301  0.234-  11 2.57   7 2.59   3 2.92   1 2.94
  23  0.084  0.699  0.766-   6 2.57   9 2.59   2 2.92   4 2.94
  24  0.741  0.981  0.477-   5 2.46  10 2.72   2 3.00   3 3.03
  25  0.537  0.541  0.302-  11 2.51  12 2.62   1 2.91   3 3.31
  26  0.190  0.154  0.867-   8 2.52  10 2.80   6 2.96   9 3.03   1 3.15

  LATTYP: Found a triclinic cell.
 ALAT       =    10.9400108539
 B/A-ratio  =     1.1267935511
 C/A-ratio  =     0.8447982385
 COS(alpha) =     0.0209459162
 COS(beta)  =     0.1531878942
 COS(gamma) =     0.8162787451

  Lattice vectors:

 A1 = (  -0.8711952806,  -1.6925615650, -10.7731189363)
 A2 = (   6.2957034841,  -1.7765768516, -10.4482590447)
 A3 = (  -1.9403689965,  -9.0350527891,   0.1386966321)

Analysis of symmetry for initial positions (statically):
 Subroutine PRICEL returns:
 Original cell was already a primitive cell.

 Routine SETGRP: Setting up the symmetry group for a
 triclinic supercell.

 Subroutine GETGRP returns: Found  2 space group operations
 (whereof  2 operations were pure point group operations)
 out of a pool of  2 trial point group operations.

The static configuration has the point symmetry S_2 .

Analysis of symmetry for dynamics (positions and initial velocities):
 Subroutine PRICEL returns:
 Original cell was already a primitive cell.

 Routine SETGRP: Setting up the symmetry group for a
 triclinic supercell.

 Subroutine GETGRP returns: Found  2 space group operations
 (whereof  2 operations were pure point group operations)
 out of a pool of  2 trial point group operations.

The dynamic configuration has the point symmetry S_2 .

 Subroutine INISYM returns: Found  2 space group operations
 (whereof  2 operations are pure point group operations),
 and found     1 'primitive' translations

 KPOINTS: pymatgen with grid density = 807 / numbe

Automatic generation of k-mesh.
Space group operators:
 irot       det(A)        alpha          n_x          n_y          n_z        tau_x        tau_y        tau_z
    1     1.000000     0.000000     1.000000     0.000000     0.000000     0.000000     0.000000     0.000000
    2    -1.000000     0.000000     1.000000     0.000000     0.000000     0.000000     0.000000     0.000000

 Subroutine IBZKPT returns following result:

 Found      6 irreducible k-points:

 Following reciprocal coordinates:
            Coordinates               Weight
 -0.000000  0.250000  0.250000      2.000000
  0.333333  0.250000  0.250000      2.000000
 -0.333333  0.250000  0.250000      2.000000
  0.000000 -0.250000  0.250000      2.000000
  0.333333 -0.250000  0.250000      2.000000
 -0.333333 -0.250000  0.250000      2.000000

 Following cartesian coordinates:
            Coordinates               Weight
  0.001565  0.026911 -0.027560      2.000000
 -0.044927  0.036929 -0.025375      2.000000
  0.048056  0.016893 -0.029746      2.000000
  0.000525 -0.028072 -0.018838      2.000000
 -0.045967 -0.018054 -0.016652      2.000000
  0.047017 -0.038090 -0.021024      2.000000

 SYSTEM =  CIS
 POSCAR =  Na4 Sb8 S14

 Startparameter for this run:
   NWRITE =      2    write-flag & timer
   PREC   = medium    normal or accurate (medium, high low for compatibility)
   ISTART =      0    job   : 0-new  1-cont  2-samecut
   ICHARG =      2    charge: 1-file 2-atom 10-const
   ISPIN  =      1    spin polarized calculation?
   LNONCOLLINEAR =      F non collinear calculations
   LSORBIT =      F    spin-orbit coupling
   INIWAV =      1    electr: 0-lowe 1-rand  2-diag
   LASPH  =      T    aspherical Exc in radial PAW
   METAGGA=      F    non-selfconsistent MetaGGA calc.

 Electronic Relaxation 1
   ENCUT  =  300.0 eV  22.05 Ry    4.70 a.u.  10.13 13.05 15.45*2*pi/ulx,y,z
   ENINI  =  300.0     initial cutoff
   ENAUG  =  380.5 eV  augmentation charge cutoff
   NELM   =     60;   NELMIN=  2; NELMDL= -5     # of ELM steps
   EDIFF  = 0.1E-03   stopping-criterion for ELM
   LREAL  =      T    real-space projection
   NLSPLINE    = F    spline interpolate recip. space projectors
   LCOMPAT=      F    compatible to vasp.4.4
   GGA_COMPAT  = T    GGA compatible to vasp.4.4-vasp.4.6
   LMAXPAW     = -100 max onsite density
   LMAXMIX     =    4 max onsite mixed and CHGCAR
   VOSKOWN=      0    Vosko Wilk Nusair interpolation
   ROPT   =   -0.00200  -0.00200  -0.00200
 Ionic relaxation
   EDIFFG = -.5E-01   stopping-criterion for IOM
   NSW    =     99    number of steps for IOM
   NBLOCK =      1;   KBLOCK =     99    inner block; outer block
   IBRION =      2    ionic relax: 0-MD 1-quasi-New 2-CG
   NFREE  =      1    steps in history (QN), initial steepest desc. (CG)
   ISIF   =      3    stress and relaxation
   IWAVPR =     11    prediction:  0-non 1-charg 2-wave 3-comb
   ISYM   =      2    0-nonsym 1-usesym 2-fastsym
   LCORR  =      T    Harris-Foulkes like correction to forces

   POTIM  = 0.1000    time-step for ionic-motion
   TEIN   =    0.0    initial temperature
   TEBEG  =    0.0;   TEEND  =   0.0 temperature during run
   SMASS  =  -3.00    Nose mass-parameter (am)
   estimated Nose-frequenzy (Omega)   =  0.10E-29 period in steps =****** mass=  -0.118E-26a.u.
   SCALEE = 1.0000    scale energy and forces
   NPACO  =    256;   APACO  = 16.0  distance and # of slots for P.C.
   PSTRESS=    0.0 pullay stress

  Mass of Ions in am
   POMASS =  22.99121.75 32.07
  Ionic Valenz
   ZVAL   =   1.00  5.00  6.00
  Atomic Wigner-Seitz radii
  virtual crystal weights
   VCA    =   1.00  1.00  1.00
   NELECT =     128.0000    total number of electrons
   NUPDOWN=      -1.0000    fix difference up-down

 DOS related values:
   EMIN   =  10.00;   EMAX   =-10.00  energy-range for DOS
   EFERMI =   0.00
   ISMEAR =     0;   SIGMA  =   0.05  broadening in eV -4-tet -1-fermi 0-gaus

 Electronic relaxation 2 (details)
   IALGO  =     38    algorithm
   LDIAG  =      T    sub-space diagonalisation (order eigenvalues)
   LSUBROT=      F    optimize rotation matrix (better conditioning)
   TURBO    =      0    0=normal 1=particle mesh
   IRESTART =      0    0=no restart 2=restart with 2 vectors
   NREBOOT  =      0    no. of reboots
   NMIN     =      0    reboot dimension
   EREF     =   0.00    reference energy to select bands
   IMIX   =      4    mixing-type and parameters
     AMIX     =   0.40;   BMIX     =  1.00
     AMIX_MAG =   1.60;   BMIX_MAG =  1.00
     AMIN     =   0.10
     WC   =   100.;   INIMIX=   1;  MIXPRE=   1;  MAXMIX= -45

 Intra band minimization:
   WEIMIN = 0.0010     energy-eigenvalue tresh-hold
   EBREAK =  0.30E-06  absolut break condition
   DEPER  =   0.30     relativ break condition

   TIME   =   0.40     timestep for ELM

  volume/ion in A,a.u.               =      26.91       181.57
  Fermi-wavevector in a.u.,A,eV,Ry     =   0.929404  1.756319 11.752596  0.863791
  Thomas-Fermi vector in A             =   2.055683

 Write flags
   LWAVE        =      F    write WAVECAR
   LDOWNSAMPLE  =      F    k-point downsampling of WAVECAR
[...]
  1.0866

[...]

 d Force = 0.3747761E-03[ 0.219E-03, 0.531E-03]  d Energy = 0.2321350E-03 0.143E-03
 d Force = 0.4481411E+00[ 0.447E+00, 0.449E+00]  d Ewald  =-0.1037179E+01 0.149E+01

[...]

 d Force = 0.2209987E-03[ 0.153E-03, 0.289E-03]  d Energy = 0.1387875E-03 0.822E-04
 d Force =-0.1655536E-01[-0.166E-01,-0.165E-01]  d Ewald  =-0.3090070E+00 0.292E+00

 Conjugate gradient step on ions:
 trial-energy change:   -0.000139  1 .order   -0.000201   -0.000286   -0.000115
  (g-gl).g = 0.306E-03      g.g   = 0.331E-03  gl.gl    = 0.332E-03
 g(Force)  = 0.291E-03   g(Stress)= 0.403E-04 ortho     = 0.255E-04
 gamma     =   0.92017
 trial     =   0.80620
 opt step  =   1.35213  (harmonic =   1.35213) maximal distance =0.00118671
 next E    =  -109.291951   (d E  =  -0.00024)

[...]

 d Force = 0.7913826E-04[ 0.285E-04, 0.130E-03]  d Energy = 0.9349294E-04-0.144E-04
 d Force =-0.2350123E-01[-0.235E-01,-0.235E-01]  d Ewald  =-0.5970778E-01 0.362E-01

 Conjugate gradient step on ions:
 trial-energy change:   -0.000093  1 .order   -0.000092   -0.000145   -0.000040
  (g-gl).g = 0.530E-03      g.g   = 0.582E-03  gl.gl    = 0.331E-03
 g(Force)  = 0.426E-03   g(Stress)= 0.156E-03 ortho     =-0.451E-04
 gamma     =   1.60002
 trial     =   0.28398
 opt step  =   0.39141  (harmonic =   0.39141) maximal distance =0.00061779
 next E    =  -109.291953   (d E  =  -0.00010)

[...]

 d Force = 0.4873399E-05[-0.103E-05, 0.108E-04]  d Energy = 0.7005205E-05-0.213E-05
 d Force =-0.8899176E-02[-0.890E-02,-0.890E-02]  d Ewald  =-0.2259600E-01 0.137E-01

[...]

 d Force = 0.4845662E-04[ 0.258E-04, 0.711E-04]  d Energy = 0.8640159E-04-0.379E-04
 d Force =-0.1362323E-01[-0.136E-01,-0.136E-01]  d Ewald  = 0.1157194E+00-0.129E+00

[...]

 d Force = 0.4396952E-04[ 0.149E-05, 0.865E-04]  d Energy = 0.1390570E-03-0.951E-04
 d Force =-0.4246555E-01[-0.425E-01,-0.424E-01]  d Ewald  = 0.3590083E+00-0.401E+00

[...]

 d Force =-0.3053911E-04[-0.640E-04, 0.297E-05]  d Energy = 0.2459477E-04-0.551E-04
 d Force =-0.8541396E-01[-0.857E-01,-0.851E-01]  d Ewald  = 0.7177152E+00-0.803E+00

[...]

 d Force = 0.1074670E-03[ 0.544E-04, 0.160E-03]  d Energy = 0.5678807E-04 0.507E-04
 d Force = 0.8445683E-01[ 0.844E-01, 0.845E-01]  d Ewald  = 0.5238168E+00-0.439E+00

 Conjugate gradient step on ions:
 trial-energy change:   -0.000057  1 .order   -0.000170   -0.000231   -0.000109
  (g-gl).g = 0.289E-03      g.g   = 0.333E-03  gl.gl    = 0.369E-03
 g(Force)  = 0.267E-03   g(Stress)= 0.660E-04 ortho     = 0.175E-04
 gamma     =   0.78441
 trial     =   0.66726
 opt step  =   1.26669  (harmonic =   1.26669) maximal distance =0.00073110
 next E    =  -109.292518   (d E  =  -0.00022)

[...]

 eigenvalue-minimisations  :  1148
 total energy-change (2. order) :-0.2171701E-05  (-0.1201690E-03)
 number of electron     128.0000500 magnetization
 augmentation part      -18.0373826 magnetization

 Broyden mixing:
  rms(total) = 0.34987E-02    rms(broyden)= 0.34979E-02
  rms(prec ) = 0.44323E-02
  weight for this iteration     100.00

[...]

--------------------------------------- Iteration     13(   2)  ---------------------------------------

 eigenvalue-minimisations  :   714
 total energy-change (2. order) : 0.2439612E-04  (-0.9870504E-05)
 number of electron     128.0000500 magnetization
 augmentation part      -18.0373826 magnetization

 Free energy of the ion-electron system (eV)
  alpha Z        PSCENC =        33.58931788
  Ewald energy   TEWEN  =     -4152.60756676
  -Hartree energ DENC   =     -1135.72384631
  -exchange      EXHF   =         0.00000000
  -V(xc)+E(xc)   XCENC  =      -337.28713773
  PAW double counting   =     10034.75175704    -9410.64964628
  entropy T*S    EENTRO =        -0.00000000
  eigenvalues    EBANDS =      -237.00955146
  atomic energy  EATOM  =      5095.64428410
  Solvation  Ediel_sol  =         0.00000000
  free energy    TOTEN  =      -109.29238952 eV

  energy without entropy =     -109.29238952  energy(sigma->0) =     -109.29238952

 average (electrostatic) potential at core
  the test charge radii are     1.1212  1.1712  0.9698
  (the norm of the test charge is              1.0000)
       1 -39.2729       2 -39.6686       3 -39.6686       4 -39.2729       5 -89.5939
       6 -89.5034       7 -89.4870       8 -89.6159       9 -89.4870      10 -89.5939
      11 -89.5034      12 -89.6159      13 -87.5811      14 -87.5290      15 -87.3715
      16 -87.3983      17 -87.6262      18 -87.5290      19 -87.2064      20 -87.6262
      21 -87.2064      22 -87.4149      23 -87.4149      24 -87.3983      25 -87.3715
      26 -87.5811

 E-fermi :   3.5056     XC(G=0):  -8.4441     alpha+bet : -9.2400

[...]

 k-point     6 :      -0.3333   -0.2500    0.2500
  band No.  band energies     occupation
      1     -10.1565      2.00000
      2      -9.8785      2.00000
      3      -9.7579      2.00000
      4      -9.4960      2.00000
      5      -9.2698      2.00000
      6      -9.1149      2.00000
      7      -8.7131      2.00000
      8      -8.6800      2.00000
      9      -8.5928      2.00000
     10      -8.5206      2.00000
     11      -8.4307      2.00000
     12      -8.3797      2.00000
     13      -8.2959      2.00000
     14      -8.2599      2.00000
     15      -5.5826      2.00000
     16      -5.3598      2.00000
     17      -5.1117      2.00000
     18      -5.0361      2.00000
     19      -4.4668      2.00000
     20      -4.2508      2.00000
     21      -4.1449      2.00000
     22      -3.7781      2.00000
     23      -1.5116      2.00000
     24      -1.2708      2.00000
     25      -1.0069      2.00000
     26      -0.8677      2.00000
     27      -0.7392      2.00000
     28      -0.6792      2.00000
     29      -0.4159      2.00000
     30      -0.3471      2.00000
     31      -0.2548      2.00000
     32      -0.0381      2.00000
     33       0.0720      2.00000
     34       0.1979      2.00000
     35       0.3926      2.00000
     36       0.4352      2.00000
     37       0.5415      2.00000
     38       0.6138      2.00000
     39       0.7185      2.00000
     40       0.7466      2.00000
     41       0.8291      2.00000
     42       0.8692      2.00000
     43       1.0156      2.00000
     44       1.1536      2.00000
     45       1.1758      2.00000
     46       1.3910      2.00000
     47       1.4896      2.00000
     48       1.6049      2.00000
     49       1.6880      2.00000
     50       1.7941      2.00000
     51       1.8734      2.00000
     52       2.0109      2.00000
     53       2.0797      2.00000
     54       2.1404      2.00000
     55       2.2123      2.00000
     56       2.4043      2.00000
     57       2.4240      2.00000
     58       2.4814      2.00000
     59       2.5888      2.00000
     60       2.7475      2.00000
[...]
     70       5.7427      0.00000
     71       5.9338      0.00000
     72       5.9763      0.00000
     73       6.1483      0.00000
     74       6.2631      0.00000
     75       6.4782      0.00000
     76       6.5490      0.00000
     77       6.6957      0.00000
     78       6.7627      0.00000
     79       6.9698      0.00000
     80       6.9996      0.00000
     81       7.1304      0.00000
     82       7.4185      0.00000
     83       7.5291      0.00000
     84       7.6237      0.00000

 soft charge-density along one line, spin component           1
         0         1         2         3         4         5         6         7         8         9
 total charge-density along one line

------------------------ aborting loop because EDIFF is reached ----------------------------------------

[...]

  FORCE on cell =-STRESS in cart. coord.  units (eV):
  Direction    XX          YY          ZZ          XY          YZ          ZX
  Alpha Z    33.58932    33.58932    33.58932
  Ewald   -1165.20471 -1369.48409 -1617.93270     5.39245  -180.20152   157.37900
  Hartree   528.15954   380.39802   226.89402     4.79817  -126.25150   102.24838
  E(xc)    -463.03684  -461.97061  -463.32405     0.18437    -0.18749     1.38030
  Local   -1632.99514 -1281.40504  -892.67866    -8.08337   303.99645  -249.06869
  n-local  1690.16211  1681.19073  1689.40637    -1.84233     0.22738    -9.90775
  augment  -382.11544  -381.21103  -384.24197     0.36641    -0.27094     2.61819
  Kinetic  1391.47556  1398.73917  1408.27589    -0.76816     2.57326    -4.51880
  Fock        0.00000     0.00000     0.00000     0.00000     0.00000     0.00000
  Total       0.03440    -0.15353    -0.01178     0.04754    -0.11437     0.13062
  in kB       0.07877    -0.35161    -0.02699     0.10887    -0.26192     0.29915

 VOLUME and BASIS-vectors are now :
  energy-cutoff  :      300.00
  volume of cell :      699.59
      direct lattice vectors                 reciprocal lattice vectors
    -7.167199609  0.080991979 -0.324765879    -0.139480925  0.030120746  0.006549850
     1.944219234  9.033205993 -0.138233602     0.002033565  0.109998003 -0.017446454
    -0.871664143 -1.693088673-10.776341979     0.004177441 -0.002318747 -0.092769465

  length of vectors
     7.175010998  9.241098824 10.943303619     0.142846380  0.111391538  0.092892418

 FORCES acting on ions
    electron-ion (+dipol)            ewald-force                    non-local-force                 convergence-correction
   -.482E+01 0.993E+00 0.742E+01   0.439E+01 -.107E+01 -.763E+01   0.434E+00 0.825E-01 0.218E+00   -.219E-03 -.466E-03 0.892E-03
   0.315E+01 0.939E+01 -.717E+01   -.293E+01 -.881E+01 0.648E+01   -.214E+00 -.590E+00 0.686E+00   0.291E-03 0.895E-03 -.682E-03
   -.315E+01 -.939E+01 0.717E+01   0.293E+01 0.881E+01 -.648E+01   0.214E+00 0.590E+00 -.686E+00   -.291E-03 -.895E-03 0.682E-03
   0.482E+01 -.993E+00 -.742E+01   -.439E+01 0.107E+01 0.763E+01   -.434E+00 -.825E-01 -.218E+00   0.219E-03 0.466E-03 -.892E-03
   0.117E+02 -.408E+02 -.120E+01   -.160E+02 0.490E+02 0.730E+01   0.432E+01 -.822E+01 -.612E+01   0.857E-03 -.113E-02 0.343E-02
   -.111E+02 -.150E+02 0.381E+01   0.127E+02 0.123E+02 -.145E+02   -.165E+01 0.268E+01 0.107E+02   -.994E-03 -.142E-02 -.250E-02
   0.330E+02 0.440E+00 -.224E+01   -.400E+02 -.488E+01 0.900E+01   0.698E+01 0.443E+01 -.672E+01   0.265E-02 -.254E-02 0.100E-02
   0.167E+02 -.656E+01 -.508E+02   -.213E+02 0.234E+01 0.592E+02   0.459E+01 0.419E+01 -.837E+01   0.653E-03 -.453E-02 -.589E-02
   -.330E+02 -.440E+00 0.224E+01   0.400E+02 0.488E+01 -.900E+01   -.698E+01 -.443E+01 0.672E+01   -.265E-02 0.254E-02 -.100E-02
   -.117E+02 0.408E+02 0.120E+01   0.160E+02 -.490E+02 -.730E+01   -.432E+01 0.822E+01 0.612E+01   -.857E-03 0.113E-02 -.343E-02
   0.111E+02 0.150E+02 -.381E+01   -.127E+02 -.123E+02 0.145E+02   0.165E+01 -.268E+01 -.107E+02   0.994E-03 0.142E-02 0.250E-02
   -.167E+02 0.656E+01 0.508E+02   0.213E+02 -.234E+01 -.592E+02   -.459E+01 -.419E+01 0.837E+01   -.653E-03 0.453E-02 0.589E-02
   0.259E+02 -.126E+02 -.349E+02   -.278E+02 0.135E+02 0.376E+02   0.192E+01 -.929E+00 -.276E+01   0.971E-03 0.355E-02 0.276E-04
   -.217E+01 -.497E+02 0.118E+02   0.274E+01 0.534E+02 -.131E+02   -.563E+00 -.369E+01 0.134E+01   -.165E-04 -.866E-02 -.191E-02
   0.413E+02 -.685E+02 -.877E+02   -.431E+02 0.711E+02 0.900E+02   0.172E+01 -.262E+01 -.232E+01   0.272E-02 -.976E-02 -.117E-01
   0.518E+02 -.859E+01 -.152E+02   -.555E+02 0.870E+01 0.160E+02   0.370E+01 -.881E-01 -.873E+00   0.252E-02 -.546E-02 -.910E-03
   0.268E+02 0.703E+02 0.856E+02   -.288E+02 -.723E+02 -.897E+02   0.196E+01 0.192E+01 0.405E+01   0.239E-02 0.831E-02 0.705E-02
   0.217E+01 0.497E+02 -.118E+02   -.274E+01 -.534E+02 0.131E+02   0.563E+00 0.369E+01 -.134E+01   0.165E-04 0.866E-02 0.191E-02
   -.505E+02 -.362E+02 0.614E+02   0.534E+02 0.366E+02 -.632E+02   -.281E+01 -.476E+00 0.178E+01   -.522E-02 -.246E-02 0.899E-02
   -.268E+02 -.703E+02 -.856E+02   0.288E+02 0.723E+02 0.897E+02   -.196E+01 -.192E+01 -.405E+01   -.239E-02 -.831E-02 -.705E-02
   0.505E+02 0.362E+02 -.614E+02   -.534E+02 -.366E+02 0.632E+02   0.281E+01 0.476E+00 -.178E+01   0.522E-02 0.246E-02 -.899E-02
   0.467E+02 0.736E+01 0.758E+02   -.488E+02 -.877E+01 -.788E+02   0.207E+01 0.140E+01 0.304E+01   0.429E-02 -.285E-02 0.801E-02
   -.467E+02 -.736E+01 -.758E+02   0.488E+02 0.877E+01 0.788E+02   -.207E+01 -.140E+01 -.304E+01   -.429E-02 0.285E-02 -.801E-02
   -.518E+02 0.859E+01 0.152E+02   0.555E+02 -.870E+01 -.160E+02   -.370E+01 0.881E-01 0.873E+00   -.252E-02 0.546E-02 0.910E-03
   -.413E+02 0.685E+02 0.877E+02   0.431E+02 -.711E+02 -.900E+02   -.172E+01 0.262E+01 0.232E+01   -.272E-02 0.976E-02 0.117E-01
   -.259E+02 0.126E+02 0.349E+02   0.278E+02 -.135E+02 -.376E+02   -.192E+01 0.929E+00 0.276E+01   -.971E-03 -.355E-02 -.276E-04
   -.726E-10 0.452E-11 0.288E-11   -.711E-14 0.746E-13 -.355E-13   0.422E-14 0.178E-14 0.355E-14   0.337E-12 -.227E-11 0.147E-11

 POSITION                                       TOTAL-FORCE (eV/Angst)
     -1.67826      2.89621     -1.44166        -0.004790      0.001777      0.005520
     -2.04507      5.95627     -6.61994         0.009744     -0.005996     -0.011304
     -4.04957      1.46484     -4.61940        -0.009744      0.005996      0.011304
     -4.41638      4.52490     -9.79768         0.004790     -0.001777     -0.005520
      1.35857      8.00146     -3.75110        -0.003073     -0.041889     -0.017133
     -0.82707      2.67993     -8.88612        -0.013536     -0.037131     -0.016594
     -5.16693      1.15793     -0.82698         0.006253     -0.008218      0.042539
     -3.99997      0.66278     -8.39204        -0.006770     -0.035552      0.002142
     -0.92771      6.26318    -10.41236        -0.006253      0.008218     -0.042539
     -7.45321     -0.58036     -7.48824         0.003073      0.041889      0.017133
     -5.26757      4.74118     -2.35322         0.013536      0.037131      0.016594
     -2.09467      6.75833     -2.84730         0.006770      0.035552     -0.002142
     -4.27467      7.48035     -1.81636        -0.007860      0.001463      0.006378
     -4.93661      1.60306    -10.54133         0.007565      0.007679      0.003644
     -3.03036      3.00730     -7.73814        -0.000344      0.025175      0.014381
     -2.27334     -0.68816     -5.72055        -0.001384      0.017980     -0.002160
      0.71534      5.59362     -4.02412        -0.013542     -0.006502      0.000341
     -1.15803      5.81805     -0.69801        -0.007565     -0.007679     -0.003644
     -3.13143      0.48302     -2.00148         0.021333     -0.007507     -0.013626
     -6.80999      1.82749     -7.21523         0.013542      0.006502     -0.000341
     -2.96322      6.93809     -9.23787        -0.021333      0.007507      0.013626
     -6.18315      2.39714     -2.85469        -0.012737     -0.005196     -0.003926
      0.08851      5.02397     -8.38465         0.012737      0.005196      0.003926
     -3.82130      8.10927     -5.51879         0.001384     -0.017980      0.002160
     -3.06429      4.41381     -3.50120         0.000344     -0.025175     -0.014381
     -1.81997     -0.05924     -9.42298         0.007860     -0.001463     -0.006378
    total drift:                               -0.000000      0.000000      0.000000

  FREE ENERGIE OF THE ION-ELECTRON SYSTEM (eV)
  free  energy   TOTEN  =      -109.29238952 eV

  energy  without entropy=     -109.29238952  energy(sigma->0) =     -109.29238952

 d Force = 0.5458592E-04[ 0.603E-04, 0.489E-04]  d Energy = 0.3478726E-04 0.198E-04
 d Force = 0.7579515E-01[ 0.758E-01, 0.758E-01]  d Ewald  = 0.4705713E+00-0.395E+00

 reached required accuracy - stopping structural energy minimisation

 total charge

# of ion       s       p       d       tot
    1        0.046   0.033   0.000   0.079
    2        0.038   0.025   0.000   0.063
    3        0.038   0.025   0.000   0.063
    4        0.046   0.033   0.000   0.079
    5        1.272   0.953   0.069   2.294
    6        1.271   0.958   0.070   2.300
    7        1.285   0.936   0.067   2.287
    8        1.286   0.924   0.068   2.277
    9        1.285   0.936   0.067   2.287
   10        1.272   0.953   0.069   2.294
   11        1.271   0.958   0.070   2.300
   12        1.286   0.924   0.068   2.277
   13        1.358   2.335   0.000   3.693
   14        1.352   2.351   0.000   3.703
   15        1.351   2.350   0.000   3.701
   16        1.352   2.350   0.000   3.702
   17        1.364   2.321   0.000   3.685
   18        1.352   2.351   0.000   3.703
   19        1.351   2.357   0.000   3.708
   20        1.364   2.321   0.000   3.685
   21        1.351   2.357   0.000   3.708
   22        1.352   2.348   0.000   3.700
   23        1.352   2.348   0.000   3.700
   24        1.352   2.350   0.000   3.702
   25        1.351   2.350   0.000   3.701
   26        1.358   2.335   0.000   3.693
tot         29.354  40.482   0.549  70.385