 vasp.5.4.4.18Apr17-6-g9f103f2a35 (build Oct 27 2022 13:04:57) complex

 executed on             LinuxIFC date 2024.07.04  11:03:50

 INCAR:
 POTCAR:    PAW_PBE Li 17Jan2003
 POTCAR:    PAW_PBE Al 04Jan2001
 POTCAR:    PAW_PBE S 06Sep2000

 POTCAR:    PAW_PBE Li 17Jan2003
   VRHFIN =Li: s1p0

   TITEL  = PAW_PBE Li 17Jan2003
   POMASS =    7.010; ZVAL   =    1.000    mass and valenz
   ENMAX  =  140.000; ENMIN  =  100.000 eV

 POTCAR:    PAW_PBE Al 04Jan2001
   VRHFIN =Al: s2p1

   TITEL  = PAW_PBE Al 04Jan2001
   POMASS =   26.981; ZVAL   =    3.000    mass and valenz
   ENMAX  =  240.300; ENMIN  =  180.225 eV

 POTCAR:    PAW_PBE S 06Sep2000
   VRHFIN =S : s2p4

   TITEL  = PAW_PBE S 06Sep2000
   POMASS =   32.066; ZVAL   =    6.000    mass and valenz
   ENMAX  =  258.689; ENMIN  =  194.016 eV

 Optimization of the real space projectors (new method)

 maximal supplied QI-value         = 18.33
 optimisation between [QCUT,QGAM] = [  8.80, 17.60] = [ 21.68, 86.71] Ry
 Optimized for a Real-space Cutoff    1.15 Angstroem

   l    n(q)    QCUT    max X(q) W(low)/X(q) W(high)/X(q)  e(spline)
   0      6     8.799    33.825    0.11E-02    0.11E-02    0.82E-07
   0      6     8.799     8.944    0.75E-03    0.85E-03    0.59E-07
   1      5     8.799     4.214    0.92E-03    0.27E-03    0.41E-07
 Optimization of the real space projectors (new method)

[...]

   l    n(q)    QCUT    max X(q) W(low)/X(q) W(high)/X(q)  e(spline)
   0      6     8.731   176.870    0.15E-02    0.11E-03    0.68E-07
   0      6     8.731   105.762    0.15E-02    0.11E-03    0.66E-07
   1      5     8.731    55.370    0.19E-02    0.30E-02    0.57E-07
   1      5     8.731    20.208    0.17E-02    0.27E-02    0.55E-07
 Optimization of the real space projectors (new method)

 maximal supplied QI-value         = 19.84
 optimisation between [QCUT,QGAM] = [  8.73, 17.66] = [ 21.34, 87.33] Ry
 Optimized for a Real-space Cutoff    1.22 Angstroem

   l    n(q)    QCUT    max X(q) W(low)/X(q) W(high)/X(q)  e(spline)
   0      6     8.731   187.594    0.15E-02    0.56E-03    0.90E-07
   0      6     8.731   164.243    0.15E-02    0.56E-03    0.89E-07
   1      6     8.731    67.533    0.37E-03    0.20E-02    0.11E-06
   1      6     8.731    50.729    0.36E-03    0.19E-02    0.10E-06
  PAW_PBE Li 17Jan2003                  :
  PAW_PBE Al 04Jan2001                  :
  PAW_PBE S 06Sep2000                   :

 POSCAR: Li9 Al1 S6
  positions in direct lattice
  velocities in cartesian coordinates
 exchange correlation table for  LEXCH =        8
   RHO(1)=    0.500       N(1)  =     2000
   RHO(2)=  100.500       N(2)  =     4000

 ion  position               nearest neighbor table
   1  0.468  0.420  0.528-  12 2.37  14 2.40  13 2.42  15 2.45
   2  0.589  0.994  0.410-  11 2.36  13 2.37   6 2.60   9 2.63
   3  0.958  0.498  0.051-  15 2.34  12 2.35   8 2.66   6 2.76   5 2.91
   4  0.978  0.879  0.640-  15 2.35  13 2.38   7 2.67   9 2.76   6 2.96
   5  0.010  0.451  0.461-  15 2.33  11 2.40  16 2.43  14 2.43   3 2.91   6 3.14  10 3.25
   6  0.974  0.780  0.099-   2 2.60   7 2.71   9 2.71   3 2.76   4 2.96   5 3.14
   7  0.220  0.859  0.181-  12 2.40   8 2.59   4 2.67   6 2.71   9 2.84
   8  0.225  0.155  0.969-  13 2.42  16 2.50   7 2.59   3 2.66   9 3.21
   9  0.298  0.867  0.724-  14 2.47   2 2.63  16 2.66   6 2.71   4 2.76   7 2.84   8 3.21
  10  0.618  0.403  0.970-  14 2.24  12 2.25  11 2.28  16 2.28   5 3.25
  11  0.405  0.257  0.214-  10 2.28   2 2.36   5 2.40
  12  0.565  0.587  0.171-  10 2.25   3 2.35   1 2.37   7 2.40
  13  0.607  0.108  0.658-   2 2.37   4 2.38   8 2.42   1 2.42
  14  0.592  0.553  0.643-  10 2.24   1 2.40   5 2.43   9 2.47
  15  0.045  0.589  0.660-   5 2.33   3 2.34   4 2.35   1 2.45
  16  0.003  0.213  0.764-  10 2.28   5 2.43   8 2.50   9 2.66

  Warning from LATTYP: Got some problem with cell dimensions!
  Tried to take original basis but could not verify dimensions!
  LATTYP: Found a triclinic cell.
 ALAT       =     7.6877905621
 B/A-ratio  =     1.6762418619
 C/A-ratio  =     0.8937994886
 COS(alpha) =     0.0302189410
 COS(beta)  =     0.5383714699
 COS(gamma) =     0.7000533434

  Lattice vectors:

 A1 = (   7.6598116092,   0.6357450806,  -0.1588648197)
 A2 = (   8.3302541780,   6.9971296458,  -6.9073444931)
 A3 = (   3.7050512872,   1.4911709643,   5.5914544166)

Analysis of symmetry for initial positions (statically):
 Subroutine PRICEL returns:
 Original cell was already a primitive cell.

 Routine SETGRP: Setting up the symmetry group for a
 triclinic supercell.

 Subroutine GETGRP returns: Found  1 space group operations
 (whereof  1 operations were pure point group operations)
 out of a pool of  2 trial point group operations.

The static configuration has the point symmetry C_1 .

Analysis of symmetry for dynamics (positions and initial velocities):
 Subroutine PRICEL returns:
 Original cell was already a primitive cell.

 Routine SETGRP: Setting up the symmetry group for a
 triclinic supercell.

 Subroutine GETGRP returns: Found  1 space group operations
 (whereof  1 operations were pure point group operations)
 out of a pool of  2 trial point group operations.

The dynamic configuration has the point symmetry C_1 .

 Subroutine INISYM returns: Found  1 space group operations
 (whereof  1 operations are pure point group operations),
 and found     1 'primitive' translations

 KPOINTS: pymatgen with grid density = 807 / numbe

Automatic generation of k-mesh.
Space group operators:
 irot       det(A)        alpha          n_x          n_y          n_z        tau_x        tau_y        tau_z
    1     1.000000     0.000000     1.000000     0.000000     0.000000     0.000000     0.000000     0.000000

 Subroutine IBZKPT returns following result:

 Found     14 irreducible k-points:

 Following reciprocal coordinates:
            Coordinates               Weight
  0.000000  0.000000  0.000000      1.000000
  0.333333 -0.000000  0.000000      2.000000
  0.000000  0.333333  0.000000      2.000000
  0.333333  0.333333  0.000000      2.000000
 -0.333333  0.333333  0.000000      2.000000
  0.000000  0.000000  0.333333      2.000000
  0.333333  0.000000  0.333333      2.000000
 -0.333333  0.000000  0.333333      2.000000
  0.000000  0.333333  0.333333      2.000000
  0.333333  0.333333  0.333333      2.000000
 -0.333333  0.333333  0.333333      2.000000
  0.000000 -0.333333  0.333333      2.000000
  0.333333 -0.333333  0.333333      2.000000
 -0.333333 -0.333333  0.333333      2.000000

 Following cartesian coordinates:
            Coordinates               Weight
  0.000000  0.000000  0.000000      1.000000
  0.045427 -0.028623 -0.022468      2.000000
 -0.003775  0.043222 -0.009026      2.000000
  0.041652  0.014600 -0.031493      2.000000
 -0.049201  0.071845  0.013442      2.000000
  0.000510  0.008131  0.057109      2.000000
  0.045936 -0.020492  0.034641      2.000000
 -0.044917  0.036753  0.079577      2.000000
 -0.003265  0.051353  0.048083      2.000000
  0.042162  0.022730  0.025615      2.000000
 -0.048692  0.079976  0.070551      2.000000
  0.004284 -0.035092  0.066134      2.000000
  0.049711 -0.063714  0.043667      2.000000
 -0.041143 -0.006469  0.088602      2.000000

 SYSTEM =  CIS
 POSCAR =  Li9 Al1 S6

 Startparameter for this run:
   NWRITE =      2    write-flag & timer
   PREC   = medium    normal or accurate (medium, high low for compatibility)
   ISTART =      0    job   : 0-new  1-cont  2-samecut
   ICHARG =      2    charge: 1-file 2-atom 10-const
   ISPIN  =      1    spin polarized calculation?
   LNONCOLLINEAR =      F non collinear calculations
   LSORBIT =      F    spin-orbit coupling
   INIWAV =      1    electr: 0-lowe 1-rand  2-diag
   LASPH  =      T    aspherical Exc in radial PAW
   METAGGA=      F    non-selfconsistent MetaGGA calc.

 Electronic Relaxation 1
   ENCUT  =  300.0 eV  22.05 Ry    4.70 a.u.  10.86 12.80  9.70*2*pi/ulx,y,z
   ENINI  =  300.0     initial cutoff
   ENAUG  =  335.1 eV  augmentation charge cutoff
   NELM   =     60;   NELMIN=  2; NELMDL= -5     # of ELM steps
   EDIFF  = 0.1E-03   stopping-criterion for ELM
   LREAL  =      T    real-space projection
   NLSPLINE    = F    spline interpolate recip. space projectors
   LCOMPAT=      F    compatible to vasp.4.4
   GGA_COMPAT  = T    GGA compatible to vasp.4.4-vasp.4.6
   LMAXPAW     = -100 max onsite density
   LMAXMIX     =    4 max onsite mixed and CHGCAR
   VOSKOWN=      0    Vosko Wilk Nusair interpolation
   ROPT   =   -0.00200  -0.00200  -0.00200
 Ionic relaxation
   EDIFFG = -.5E-01   stopping-criterion for IOM
   NSW    =     99    number of steps for IOM
   NBLOCK =      1;   KBLOCK =     99    inner block; outer block
   IBRION =      2    ionic relax: 0-MD 1-quasi-New 2-CG
   NFREE  =      1    steps in history (QN), initial steepest desc. (CG)
   ISIF   =      3    stress and relaxation
   IWAVPR =     11    prediction:  0-non 1-charg 2-wave 3-comb
   ISYM   =      2    0-nonsym 1-usesym 2-fastsym
   LCORR  =      T    Harris-Foulkes like correction to forces

   POTIM  = 0.1000    time-step for ionic-motion
   TEIN   =    0.0    initial temperature
   TEBEG  =    0.0;   TEEND  =   0.0 temperature during run
   SMASS  =  -3.00    Nose mass-parameter (am)
   estimated Nose-frequenzy (Omega)   =  0.10E-29 period in steps =****** mass=  -0.135E-26a.u.
   SCALEE = 1.0000    scale energy and forces
   NPACO  =    256;   APACO  = 16.0  distance and # of slots for P.C.
   PSTRESS=    0.0 pullay stress

  Mass of Ions in am
   POMASS =   7.01 26.98 32.07
  Ionic Valenz
   ZVAL   =   1.00  3.00  6.00
  Atomic Wigner-Seitz radii
  virtual crystal weights
   VCA    =   1.00  1.00  1.00
   NELECT =      64.0000    total number of electrons
   NUPDOWN=      -1.0000    fix difference up-down

 DOS related values:
   EMIN   =  10.00;   EMAX   =-10.00  energy-range for DOS
   EFERMI =   0.00
   ISMEAR =     0;   SIGMA  =   0.05  broadening in eV -4-tet -1-fermi 0-gaus

 Electronic relaxation 2 (details)
   IALGO  =     38    algorithm
   LDIAG  =      T    sub-space diagonalisation (order eigenvalues)
   LSUBROT=      F    optimize rotation matrix (better conditioning)
   TURBO    =      0    0=normal 1=particle mesh
   IRESTART =      0    0=no restart 2=restart with 2 vectors
   NREBOOT  =      0    no. of reboots
   NMIN     =      0    reboot dimension
   EREF     =   0.00    reference energy to select bands
   IMIX   =      4    mixing-type and parameters
     AMIX     =   0.40;   BMIX     =  1.00
     AMIX_MAG =   1.60;   BMIX_MAG =  1.00
     AMIN     =   0.10
     WC   =   100.;   INIMIX=   1;  MIXPRE=   1;  MAXMIX= -45

 Intra band minimization:
   WEIMIN = 0.0010     energy-eigenvalue tresh-hold
   EBREAK =  0.60E-06  absolut break condition
   DEPER  =   0.30     relativ break condition

   TIME   =   0.40     timestep for ELM

  volume/ion in A,a.u.               =      20.93       141.23
  Fermi-wavevector in a.u.,A,eV,Ry     =   0.943020  1.782050 12.099490  0.889287
  Thomas-Fermi vector in A             =   2.070687

 Write flags
   LWAVE        =      F    write WAVECAR
   LDOWNSAMPLE  =      F    k-point downsampling of WAVECAR
   LCHARG       =      F    write CHGCAR
[...]
     3.705051287  1.491170964  5.591454417     0.001528841  0.024391979  0.171326257

[...]

 FORCES acting on ions
    electron-ion (+dipol)            ewald-force                    non-local-force                 convergence-correction
   -.212E+01 0.437E+01 -.185E+01   0.231E+01 -.390E+01 0.164E+01   -.183E+00 -.476E+00 0.223E+00   0.185E-03 -.798E-04 -.239E-03
   0.215E+01 0.299E+02 0.923E+01   -.333E+01 -.333E+02 -.888E+01   0.115E+01 0.343E+01 -.344E+00   -.489E-03 0.297E-03 -.101E-02
   -.251E+02 -.431E+01 -.191E+02   0.263E+02 0.173E+01 0.193E+02   -.124E+01 0.257E+01 -.281E+00   -.832E-03 -.985E-03 0.797E-03
   -.146E+02 -.179E+02 0.763E+00   0.176E+02 0.166E+02 -.353E+01   -.298E+01 0.129E+01 0.275E+01   0.585E-03 0.719E-03 -.332E-03
   0.155E+02 -.359E+01 0.334E+02   -.145E+02 0.398E+01 -.326E+02   -.103E+01 -.375E+00 -.816E+00   -.676E-03 -.137E-02 0.117E-03
   0.739E+01 -.632E+01 -.124E+00   -.730E+01 0.799E+01 0.917E+00   -.964E-01 -.170E+01 -.794E+00   -.239E-03 0.750E-03 -.175E-03
   0.199E+01 -.235E+02 -.383E+00   -.340E+01 0.262E+02 0.154E+00   0.141E+01 -.282E+01 0.227E+00   0.519E-03 0.108E-02 -.516E-03
   -.983E+01 0.659E+01 -.332E+02   0.869E+01 -.621E+01 0.362E+02   0.116E+01 -.299E+00 -.302E+01   -.714E-03 0.447E-03 0.162E-02
   0.768E+01 -.336E+01 0.279E+01   -.599E+01 0.425E+01 -.404E+01   -.164E+01 -.889E+00 0.124E+01   0.299E-03 0.248E-03 -.126E-03
   0.127E+02 0.728E+01 -.146E+02   -.114E+02 -.653E+01 0.131E+02   -.123E+01 -.759E+00 0.157E+01   0.446E-03 -.246E-03 0.728E-03
   0.220E+02 0.400E+02 0.113E+02   -.238E+02 -.414E+02 -.117E+02   0.170E+01 0.145E+01 0.425E+00   0.130E-02 0.316E-03 0.711E-03
   -.132E+02 -.445E+02 -.147E+02   0.135E+02 0.440E+02 0.166E+02   -.312E+00 0.519E+00 -.197E+01   0.106E-02 -.254E-02 0.164E-03
   -.302E+02 0.431E+01 -.286E+01   0.306E+02 -.263E+01 0.149E+01   -.402E+00 -.171E+01 0.136E+01   -.551E-03 0.160E-02 -.206E-02
   0.340E+02 -.204E+02 0.291E+02   -.355E+02 0.204E+02 -.294E+02   0.144E+01 0.835E-01 0.349E+00   -.265E-04 -.292E-02 0.112E-02
   -.144E+02 -.316E+02 0.117E+02   0.156E+02 0.317E+02 -.115E+02   -.115E+01 -.630E-01 -.138E+00   0.126E-02 -.109E-02 0.200E-02
   0.864E+01 0.618E+02 -.125E+02   -.933E+01 -.629E+02 0.122E+02   0.686E+00 0.108E+01 0.294E+00   -.543E-03 0.145E-02 0.991E-03
   0.269E+01 -.132E+01 -.103E+01   0.888E-14 0.000E+00 -.160E-13   -.271E+01 0.133E+01 0.108E+01   0.158E-02 -.233E-02 0.379E-02

 POSITION                                       TOTAL-FORCE (eV/Angst)
      7.37890      4.38066      2.39238         0.005358     -0.004017      0.003062
     10.37903      8.78728      1.04782        -0.035863      0.065740      0.003138
      9.70560      4.59850     -0.44514        -0.032481     -0.011171     -0.045344
     13.70604      8.47509      2.40380        -0.027373      0.021733     -0.026229
      3.75940      4.23453      2.05377        -0.015579      0.009871      0.009531
     11.24163      6.88969     -0.50083        -0.004713     -0.029859     -0.004467
      6.11522      7.15369     -0.01888         0.009682     -0.085522     -0.005936
      5.99546      2.80778      5.20095         0.023039      0.075293     -0.016095
      8.76154      8.08119      2.99924         0.052732     -0.002913     -0.018507
     10.09319      5.00233      4.86019         0.000938     -0.009218      0.017332
      5.01625      2.59215      0.83740        -0.009479     -0.013679      0.070439
      7.52854      5.22139      0.18559        -0.007874      0.028754     -0.018466
      7.56152      2.21546      3.45794         0.012641     -0.033658     -0.013900
      9.33965      5.68086      2.85945        -0.000487     -0.004223      0.036744
      5.36355      5.63515      3.00207         0.041873     -0.017904      0.033479
      3.78480      2.81526      4.02691        -0.012416      0.010774     -0.024780
    total drift:                               -0.018003      0.004292      0.054437

  FREE ENERGIE OF THE ION-ELECTRON SYSTEM (eV)
  free  energy   TOTEN  =       -68.50269030 eV

  energy  without entropy=      -68.50269028  energy(sigma->0) =      -68.50269029

[...]

 d Force = 0.3935589E-03[ 0.372E-03, 0.415E-03]  d Energy = 0.2783890E-02-0.239E-02
 d Force =-0.7964211E-01[-0.798E-01,-0.795E-01]  d Ewald  =-0.6449908E+00 0.565E+00

 Steepest descent step on ions:
 trial-energy change:   -0.002784  1 .order   -0.002849   -0.002963   -0.002735
  (g-gl).g = 0.296E-02      g.g   = 0.296E-02  gl.gl    = 0.000E+00
 g(Force)  = 0.415E-03   g(Stress)= 0.255E-02 ortho     = 0.000E+00
 gamma     =   0.00000
 trial     =   1.00000
 opt step  =   4.00000  (harmonic =  12.97330) maximal distance =0.00290587
 next E    =   -68.521910   (d E  =  -0.01922)

[...]

 d Force = 0.8448271E-03[ 0.573E-03, 0.112E-02]  d Energy = 0.5955732E-02-0.511E-02
 d Force =-0.2411474E+00[-0.243E+00,-0.240E+00]  d Ewald  =-0.1934715E+01 0.169E+01

[...]

 d Force = 0.1043328E-03[-0.936E-03, 0.115E-02]  d Energy = 0.1547372E-02-0.144E-02
 d Force =-0.4921733E+00[-0.499E+00,-0.486E+00]  d Ewald  =-0.3868136E+01 0.338E+01

[...]

 d Force = 0.2077697E-03[ 0.864E-04, 0.329E-03]  d Energy = 0.9848987E-03-0.777E-03
 d Force = 0.1768601E+00[ 0.176E+00, 0.178E+00]  d Ewald  = 0.1379758E+01-0.120E+01

[...]

 d Force = 0.1532116E-02[ 0.137E-02, 0.169E-02]  d Energy = 0.1940693E-02-0.409E-03
 d Force =-0.2436775E+00[-0.245E+00,-0.243E+00]  d Ewald  = 0.1113621E+00-0.355E+00

 Conjugate gradient step on ions:
 trial-energy change:   -0.001941  1 .order   -0.001973   -0.002116   -0.001831
  (g-gl).g = 0.115E-02      g.g   = 0.966E-03  gl.gl    = 0.296E-02
 g(Force)  = 0.729E-03   g(Stress)= 0.237E-03 ortho     =-0.189E-03
 gamma     =   0.38972
 trial     =   2.37186
 opt step  =   9.48746  (harmonic =  17.62688) maximal distance =0.00987496
 next E    =   -68.521824   (d E  =  -0.00786)

[...]

 d Force = 0.2555976E-02[ 0.993E-03, 0.412E-02]  d Energy = 0.2381812E-02 0.174E-03
 d Force =-0.7421986E+00[-0.751E+00,-0.734E+00]  d Ewald  = 0.3324874E+00-0.107E+01

[...]

 eigenvalue-minimisations  :  1568
 total energy-change (2. order) :-0.6041732E-04  (-0.2239155E-03)
 number of electron      64.0000018 magnetization
 augmentation part       -5.2698109 magnetization

 Broyden mixing:
  rms(total) = 0.72165E-02    rms(broyden)= 0.72159E-02
  rms(prec ) = 0.83238E-02
  weight for this iteration     100.00

 eigenvalues of (default mixing * dielectric matrix)
  average eigenvalue GAMMA=   0.7533
  0.7533

[...]

--------------------------------------- Iteration      8(   3)  ---------------------------------------

 eigenvalue-minimisations  :  1050
 total energy-change (2. order) : 0.2410978E-04  (-0.8925202E-05)
 number of electron      64.0000018 magnetization
 augmentation part       -5.2698109 magnetization

 Free energy of the ion-electron system (eV)
  alpha Z        PSCENC =        27.32923125
  Ewald energy   TEWEN  =     -1923.96620351
  -Hartree energ DENC   =      -409.51675017
  -exchange      EXHF   =         0.00000000
  -V(xc)+E(xc)   XCENC  =      -164.76441003
  PAW double counting   =      5353.99845821    -5043.14656722
  entropy T*S    EENTRO =        -0.00000000
  eigenvalues    EBANDS =       -56.48378988
  atomic energy  EATOM  =      2148.03074991
  Solvation  Ediel_sol  =         0.00000000
  free energy    TOTEN  =       -68.51928144 eV

  energy without entropy =      -68.51928144  energy(sigma->0) =      -68.51928144

 average (electrostatic) potential at core
  the test charge radii are     0.9748  1.0406  0.9698
  (the norm of the test charge is              1.0000)
       1 -25.5228       2 -75.5918       3 -75.7128       4 -75.9517       5 -76.7505
       6 -75.1707       7 -75.3432       8 -75.6981       9 -75.6352      10 -76.4087
      11 -87.2403      12 -87.0622      13 -87.1058      14 -87.0651      15 -87.0945
      16 -87.1077

 E-fermi :   4.9787     XC(G=0):  -8.9317     alpha+bet :-10.6659

[...]

 k-point    14 :      -0.3333   -0.3333    0.3333
  band No.  band energies     occupation
      1      -9.3803      2.00000
      2      -8.9936      2.00000
      3      -8.7855      2.00000
      4      -8.5215      2.00000
      5      -8.4469      2.00000
      6      -8.2638      2.00000
      7      -2.7893      2.00000
      8      -2.1148      2.00000
      9      -1.9365      2.00000
     10      -1.5591      2.00000
     11      -1.3710      2.00000
     12      -0.8066      2.00000
     13      -0.3490      2.00000
     14      -0.2683      2.00000
     15      -0.0655      2.00000
     16       0.2379      2.00000
     17       0.4691      2.00000
     18       0.7544      2.00000
     19       0.8593      2.00000
     20       0.9405      2.00000
     21       1.1049      2.00000
     22       1.3689      2.00000
     23       1.6070      2.00000
     24       1.8356      2.00000
     25       2.1336      2.00000
     26       2.4309      2.00000
     27       2.6557      2.00000
     28       3.1001      2.00000
     29       3.5279      2.00000
     30       3.9158      2.00000
     31       4.0643      2.00000
     32       4.6460      2.00000
     33       5.1862      0.00000
     34       6.0375      0.00000
     35       6.5978      0.00000
     36       6.8079      0.00000
     37       7.0756      0.00000
     38       7.2114      0.00000
     39       7.4595      0.00000
     40       7.6562      0.00000
     41       8.1223      0.00000
     42       8.2009      0.00000

 soft charge-density along one line, spin component           1
         0         1         2         3         4         5         6         7         8         9
 total charge-density along one line

------------------------ aborting loop because EDIFF is reached ----------------------------------------

[...]

  FORCE on cell =-STRESS in cart. coord.  units (eV):
  Direction    XX          YY          ZZ          XY          YZ          ZX
  Alpha Z    27.32923    27.32923    27.32923
  Ewald    -612.22704  -676.12903  -635.61392   -64.11352    31.60806   -24.33695
  Hartree   166.67095    91.05275   151.89890   -17.83394    24.05734   -17.34949
  E(xc)    -205.30670  -205.31778  -205.75121    -0.40781     0.09195     0.23194
  Local    -492.76562  -355.01821  -463.00409    73.84237   -55.00237    42.48078
  n-local   609.75193   613.50002   614.20638     0.99737    -0.91729    -2.46705
  augment  -112.53704  -112.67258  -113.15737    -0.64103     0.06605    -0.00216
  Kinetic   619.18349   617.37141   624.28654     8.17429     0.15711     1.50028
  Fock        0.00000     0.00000     0.00000     0.00000     0.00000     0.00000
  Total       0.09920     0.11581     0.19446     0.01773     0.06085     0.05734
  in kB       0.47300     0.55219     0.92721     0.08454     0.29014     0.27342

 VOLUME and BASIS-vectors are now :
  energy-cutoff  :      300.00
  volume of cell :      336.02
      direct lattice vectors                 reciprocal lattice vectors
     7.646589200  0.681702542 -0.178146901     0.136906306 -0.086463418 -0.067787044
     4.409617995  7.937007517 -1.217877072    -0.012083329  0.128677047 -0.026252381
     3.693756434  1.482948450  5.568582645     0.001737143  0.025376230  0.171668777

  length of vectors
     7.678983075  9.161006699  6.844858317     0.175540145  0.131882436  0.173542905

 FORCES acting on ions
    electron-ion (+dipol)            ewald-force                    non-local-force                 convergence-correction
   -.249E+01 0.484E+01 -.188E+01   0.263E+01 -.432E+01 0.167E+01   -.120E+00 -.548E+00 0.206E+00   0.317E-03 -.571E-03 0.356E-03
   0.287E+01 0.309E+02 0.922E+01   -.386E+01 -.343E+02 -.890E+01   0.988E+00 0.344E+01 -.349E+00   0.421E-04 -.183E-02 0.254E-03
   -.254E+02 -.466E+01 -.191E+02   0.265E+02 0.207E+01 0.193E+02   -.109E+01 0.259E+01 -.233E+00   0.473E-03 -.945E-03 -.873E-03
   -.145E+02 -.174E+02 0.358E+00   0.175E+02 0.163E+02 -.315E+01   -.301E+01 0.106E+01 0.278E+01   -.834E-03 0.323E-02 0.537E-04
   0.153E+02 -.423E+01 0.329E+02   -.143E+02 0.454E+01 -.321E+02   -.964E+00 -.312E+00 -.811E+00   -.136E-02 0.140E-02 -.164E-02
   0.775E+01 -.647E+01 -.389E+00   -.771E+01 0.831E+01 0.114E+01   -.473E-01 -.183E+01 -.766E+00   -.990E-03 0.914E-03 0.171E-02
   0.181E+01 -.247E+02 0.193E+00   -.332E+01 0.272E+02 -.238E+00   0.150E+01 -.250E+01 0.216E-01   0.298E-03 0.200E-02 -.119E-02
   -.975E+01 0.742E+01 -.341E+02   0.867E+01 -.688E+01 0.369E+02   0.108E+01 -.531E+00 -.277E+01   -.159E-03 0.250E-03 0.242E-02
   0.775E+01 -.430E+01 0.334E+01   -.600E+01 0.518E+01 -.448E+01   -.175E+01 -.896E+00 0.114E+01   0.422E-03 0.343E-02 -.108E-02
   0.132E+02 0.776E+01 -.149E+02   -.118E+02 -.702E+01 0.132E+02   -.143E+01 -.749E+00 0.159E+01   0.264E-02 0.191E-03 -.621E-03
   0.209E+02 0.407E+02 0.124E+02   -.227E+02 -.421E+02 -.127E+02   0.176E+01 0.140E+01 0.350E+00   -.144E-01 -.190E-01 0.126E-02
   -.132E+02 -.445E+02 -.147E+02   0.135E+02 0.441E+02 0.167E+02   -.321E+00 0.449E+00 -.194E+01   -.104E-02 -.373E-02 -.224E-01
   -.312E+02 0.418E+01 -.294E+01   0.316E+02 -.248E+01 0.157E+01   -.428E+00 -.167E+01 0.140E+01   0.198E-02 -.119E-01 -.422E-02
   0.343E+02 -.208E+02 0.288E+02   -.358E+02 0.207E+02 -.291E+02   0.143E+01 0.116E+00 0.330E+00   0.351E-02 -.554E-02 -.835E-02
   -.133E+02 -.327E+02 0.117E+02   0.145E+02 0.327E+02 -.115E+02   -.125E+01 -.145E-01 -.158E+00   -.474E-02 -.950E-02 0.139E-01
   0.880E+01 0.630E+02 -.121E+02   -.954E+01 -.641E+02 0.117E+02   0.736E+00 0.112E+01 0.347E+00   -.968E-03 -.147E-01 0.165E-01
   0.294E+01 -.101E+01 -.110E+01   0.178E-14 0.000E+00 -.142E-13   -.292E+01 0.112E+01 0.114E+01   -.148E-01 -.563E-01 -.389E-02

 POSITION                                       TOTAL-FORCE (eV/Angst)
      7.38564      4.43058      2.34525         0.023922     -0.026026     -0.000668
     10.39295      8.90417      0.96732        -0.001290     -0.012920     -0.026473
      9.70757      4.68257     -0.50299         0.005433     -0.002962      0.005423
     13.71235      8.58108      2.31360        -0.000110     -0.019493     -0.015444
      3.76765      4.27166      2.02470        -0.012646     -0.002749      0.034750
     11.25318      6.99267     -0.57334        -0.008717      0.003837     -0.019468
      6.14136      7.22988     -0.08964        -0.001441      0.017508     -0.026902
      5.98684      2.82941      5.17192        -0.005351      0.004502      0.022401
      8.78998      8.16051      2.92138        -0.003190     -0.017183     -0.004411
     10.08330      5.05555      4.81276         0.004622     -0.011666     -0.031787
      5.02470      2.63676      0.81322         0.004035      0.017064      0.020389
      7.53241      5.29271      0.13642         0.012904      0.012072      0.038490
      7.54804      2.24609      3.42168         0.002305      0.014236      0.024677
      9.34007      5.75111      2.80799        -0.001653      0.012346      0.007236
      5.38212      5.68418      2.94859        -0.011778     -0.003585     -0.011350
      3.78414      2.82969      3.98780        -0.007044      0.015019     -0.016862
    total drift:                                0.002439      0.047833      0.035709

  FREE ENERGIE OF THE ION-ELECTRON SYSTEM (eV)
  free  energy   TOTEN  =       -68.51928144 eV

  energy  without entropy=      -68.51928144  energy(sigma->0) =      -68.51928144

 d Force = 0.8917739E-03[ 0.641E-03, 0.114E-02]  d Energy = 0.9967393E-03-0.105E-03
 d Force = 0.2358670E-01[ 0.224E-01, 0.248E-01]  d Ewald  =-0.5649044E+00 0.588E+00

 Conjugate gradient step on ions:
 trial-energy change:   -0.000997  1 .order   -0.001027   -0.001287   -0.000767
  (g-gl).g = 0.295E-03      g.g   = 0.339E-03  gl.gl    = 0.966E-03
 g(Force)  = 0.258E-03   g(Stress)= 0.810E-04 ortho     =-0.116E-05
 gamma     =   0.30540
 trial     =   3.79498
 opt step  =   9.39259  (harmonic =   9.39259) maximal distance =0.00620977
 next E    =   -68.519877   (d E  =  -0.00159)

 reached required accuracy - stopping structural energy minimisation

 total charge

# of ion       s       p       d       tot
    1        0.092   0.174   0.000   0.266
    2        0.437   0.339   0.000   0.776
    3        0.434   0.341   0.000   0.775
    4        0.430   0.321   0.000   0.751
    5        0.372   0.319   0.000   0.692
    6        0.435   0.366   0.000   0.801
    7        0.435   0.355   0.000   0.790
    8        0.453   0.308   0.000   0.761
    9        0.448   0.313   0.000   0.761
   10        0.381   0.380   0.000   0.761
   11        1.329   2.444   0.000   3.773
   12        1.322   2.488   0.000   3.810
   13        1.325   2.443   0.000   3.768
   14        1.335   2.450   0.000   3.784
   15        1.326   2.466   0.000   3.791
   16        1.336   2.428   0.000   3.764
tot         11.891  17.936   0.000  29.826