 vasp.5.4.4.18Apr17-6-g9f103f2a35 (build Oct 27 2022 13:04:57) complex

 executed on             LinuxIFC date 2024.06.30  09:05:57

 INCAR:
 POTCAR:    PAW_PBE Na 08Apr2002
 POTCAR:    PAW_PBE Sb 06Sep2000
 POTCAR:    PAW_PBE Se 06Sep2000

 POTCAR:    PAW_PBE Na 08Apr2002
   VRHFIN =Na: s1p0

   TITEL  = PAW_PBE Na 08Apr2002
   POMASS =   22.990; ZVAL   =    1.000    mass and valenz
   ENMAX  =  101.968; ENMIN  =   76.476 eV

 POTCAR:    PAW_PBE Sb 06Sep2000
   VRHFIN =Sb: s2p3

   TITEL  = PAW_PBE Sb 06Sep2000
   POMASS =  121.750; ZVAL   =    5.000    mass and valenz
   ENMAX  =  172.069; ENMIN  =  129.052 eV

 POTCAR:    PAW_PBE Se 06Sep2000
   VRHFIN =Se: s2p4

   TITEL  = PAW_PBE Se 06Sep2000
   POMASS =   78.960; ZVAL   =    6.000    mass and valenz
   ENMAX  =  211.555; ENMIN  =  158.666 eV

 Optimization of the real space projectors (new method)

 maximal supplied QI-value         = 17.01
 optimisation between [QCUT,QGAM] = [  8.84, 17.69] = [ 21.90, 87.61] Ry
 Optimized for a Real-space Cutoff    1.22 Angstroem

   l    n(q)    QCUT    max X(q) W(low)/X(q) W(high)/X(q)  e(spline)
   0      6     8.844    45.123    0.62E-03    0.70E-03    0.80E-07
   0      6     8.844    12.364    0.51E-03    0.48E-03    0.55E-07
   1      6     8.844     8.302    0.36E-03    0.27E-03    0.23E-07
 Optimization of the real space projectors (new method)

[...]

   l    n(q)    QCUT    max X(q) W(low)/X(q) W(high)/X(q)  e(spline)
   0      7     8.776    19.000    0.12E-02    0.42E-03    0.95E-07
   0      7     8.776     9.057    0.14E-02    0.54E-03    0.11E-06
   1      6     8.776   125.345    0.45E-03    0.22E-02    0.77E-07
   1      6     8.776    79.963    0.45E-03    0.21E-02    0.76E-07
   2      6     8.776     6.963    0.11E-02    0.51E-03    0.39E-07
 Optimization of the real space projectors (new method)

 maximal supplied QI-value         = 17.95
 optimisation between [QCUT,QGAM] = [  8.80, 17.59] = [ 21.67, 86.68] Ry
 Optimized for a Real-space Cutoff    1.19 Angstroem

   l    n(q)    QCUT    max X(q) W(low)/X(q) W(high)/X(q)  e(spline)
   0      6     8.797   133.320    0.14E-02    0.11E-02    0.95E-07
   0      6     8.797   111.601    0.15E-02    0.12E-02    0.10E-06
   1      6     8.797    47.222    0.19E-02    0.96E-03    0.11E-06
   1      6     8.797    33.775    0.19E-02    0.99E-03    0.11E-06
   2      5     8.797     3.720    0.16E-02    0.14E-02    0.40E-07
  PAW_PBE Na 08Apr2002                  :
  PAW_PBE Sb 06Sep2000                  :
  PAW_PBE Se 06Sep2000                  :

 POSCAR: Na4 Sb8 Se14
  positions in direct lattice
  velocities in cartesian coordinates
 exchange correlation table for  LEXCH =        8
   RHO(1)=    0.500       N(1)  =     2000
   RHO(2)=  100.500       N(2)  =     4000

 ion  position               nearest neighbor table
   1  0.311  0.344  0.121-  19 3.00  25 3.02  22 3.03  14 3.09  18 3.13  26 3.29
   2  0.430  0.757  0.588-  23 3.05  24 3.06  21 3.15  16 3.16  15 3.37  12 4.00
   3  0.570  0.243  0.412-  22 3.05  16 3.06  19 3.15  24 3.16  25 3.37   8 4.00
   4  0.689  0.656  0.879-  21 3.00  15 3.02  23 3.03  18 3.09  14 3.13  13 3.29
   5  0.023  0.960  0.331-  24 2.60  17 2.65  13 2.84  16 3.00
   6  0.142  0.447  0.809-  15 2.65  20 2.66  23 2.69  26 3.12
   7  0.750  0.131  0.050-  19 2.62  22 2.75  14 2.76  13 3.15  21 3.17
   8  0.527  0.206  0.757-  14 2.69  26 2.73  15 2.77  21 3.10  20 3.23   3 4.00
   9  0.250  0.869  0.950-  21 2.62  23 2.75  18 2.76  26 3.15  19 3.17
  10  0.977  0.040  0.669-  16 2.60  20 2.65  26 2.84  24 3.00
  11  0.858  0.553  0.191-  25 2.65  17 2.66  22 2.69  13 3.12
  12  0.473  0.794  0.243-  18 2.69  13 2.73  25 2.77  19 3.10  17 3.23   2 4.00
  13  0.822  0.849  0.129-  12 2.73   5 2.84  11 3.12   7 3.15   4 3.29
  14  0.675  0.355  0.954-   8 2.69   7 2.76   1 3.09   4 3.13
  15  0.474  0.457  0.689-   6 2.65   8 2.77   4 3.02   2 3.37
  16  0.276  0.018  0.528-  10 2.60   5 3.00   3 3.06   2 3.16
  17  0.056  0.701  0.366-   5 2.65  11 2.66  12 3.23
  18  0.325  0.645  0.046-  12 2.69   9 2.76   4 3.09   1 3.13
  19  0.423  0.079  0.170-   7 2.62   1 3.00  12 3.10   3 3.15   9 3.17
  20  0.944  0.299  0.634-  10 2.65   6 2.66   8 3.23
  21  0.577  0.921  0.830-   9 2.62   4 3.00   8 3.10   2 3.15   7 3.17
  22  0.916  0.303  0.240-  11 2.69   7 2.75   1 3.03   3 3.05
  23  0.084  0.697  0.760-   6 2.69   9 2.75   4 3.03   2 3.05
  24  0.724  0.982  0.472-   5 2.60  10 3.00   2 3.06   3 3.16
  25  0.526  0.543  0.311-  11 2.65  12 2.77   1 3.02   3 3.37
  26  0.178  0.151  0.871-   8 2.73  10 2.84   6 3.12   9 3.15   1 3.29

  LATTYP: Found a triclinic cell.
 ALAT       =     9.6202162287
 B/A-ratio  =     1.9824554572
 C/A-ratio  =     1.4911190499
 COS(alpha) =     0.0074162665
 COS(beta)  =     0.2397604225
 COS(gamma) =     0.9262387158

  Lattice vectors:

 A1 = (   2.0795107494,   9.3922918933,  -0.0951226586)
 A2 = (  -3.1934317498,  18.7954502484,  -0.5107675739)
 A3 = (   8.2207461940,   1.8202979813,  11.6138559444)

Analysis of symmetry for initial positions (statically):
 Subroutine PRICEL returns:
 Original cell was already a primitive cell.

 Routine SETGRP: Setting up the symmetry group for a
 triclinic supercell.

 Subroutine GETGRP returns: Found  2 space group operations
 (whereof  2 operations were pure point group operations)
 out of a pool of  2 trial point group operations.

The static configuration has the point symmetry S_2 .

Analysis of symmetry for dynamics (positions and initial velocities):
 Subroutine PRICEL returns:
 Original cell was already a primitive cell.

 Routine SETGRP: Setting up the symmetry group for a
 triclinic supercell.

 Subroutine GETGRP returns: Found  2 space group operations
 (whereof  2 operations were pure point group operations)
 out of a pool of  2 trial point group operations.

The dynamic configuration has the point symmetry S_2 .

 Subroutine INISYM returns: Found  2 space group operations
 (whereof  2 operations are pure point group operations),
 and found     1 'primitive' translations

 KPOINTS: pymatgen with grid density = 807 / numbe

Automatic generation of k-mesh.
Space group operators:
 irot       det(A)        alpha          n_x          n_y          n_z        tau_x        tau_y        tau_z
    1     1.000000     0.000000     1.000000     0.000000     0.000000     0.000000     0.000000     0.000000
    2    -1.000000     0.000000     1.000000     0.000000     0.000000     0.000000     0.000000     0.000000

 Subroutine IBZKPT returns following result:

 Found      6 irreducible k-points:

 Following reciprocal coordinates:
            Coordinates               Weight
  0.000000  0.250000  0.250000      2.000000
  0.333333  0.250000  0.250000      2.000000
 -0.333333  0.250000  0.250000      2.000000
  0.000000 -0.250000  0.250000      2.000000
  0.333333 -0.250000  0.250000      2.000000
 -0.333333 -0.250000  0.250000      2.000000

 Following cartesian coordinates:
            Coordinates               Weight
  0.001192  0.026086 -0.026458      2.000000
 -0.044210  0.036157 -0.024600      2.000000
  0.046594  0.016015 -0.028316      2.000000
  0.000737 -0.026961 -0.017822      2.000000
 -0.044665 -0.016890 -0.015964      2.000000
  0.046140 -0.037032 -0.019680      2.000000

 SYSTEM =  CIS
 POSCAR =  Na4 Sb8 Se14

 Startparameter for this run:
   NWRITE =      2    write-flag & timer
   PREC   = medium    normal or accurate (medium, high low for compatibility)
   ISTART =      0    job   : 0-new  1-cont  2-samecut
   ICHARG =      2    charge: 1-file 2-atom 10-const
   ISPIN  =      1    spin polarized calculation?
   LNONCOLLINEAR =      F non collinear calculations
   LSORBIT =      F    spin-orbit coupling
   INIWAV =      1    electr: 0-lowe 1-rand  2-diag
   LASPH  =      T    aspherical Exc in radial PAW
   METAGGA=      F    non-selfconsistent MetaGGA calc.

 Electronic Relaxation 1
   ENCUT  =  300.0 eV  22.05 Ry    4.70 a.u.  10.39 13.59 16.20*2*pi/ulx,y,z
   ENINI  =  300.0     initial cutoff
   ENAUG  =  446.8 eV  augmentation charge cutoff
   NELM   =     60;   NELMIN=  2; NELMDL= -5     # of ELM steps
   EDIFF  = 0.1E-03   stopping-criterion for ELM
   LREAL  =      T    real-space projection
   NLSPLINE    = F    spline interpolate recip. space projectors
   LCOMPAT=      F    compatible to vasp.4.4
   GGA_COMPAT  = T    GGA compatible to vasp.4.4-vasp.4.6
   LMAXPAW     = -100 max onsite density
   LMAXMIX     =    4 max onsite mixed and CHGCAR
   VOSKOWN=      0    Vosko Wilk Nusair interpolation
   ROPT   =   -0.00200  -0.00200  -0.00200
 Ionic relaxation
   EDIFFG = -.5E-01   stopping-criterion for IOM
   NSW    =     99    number of steps for IOM
   NBLOCK =      1;   KBLOCK =     99    inner block; outer block
   IBRION =      2    ionic relax: 0-MD 1-quasi-New 2-CG
   NFREE  =      1    steps in history (QN), initial steepest desc. (CG)
   ISIF   =      3    stress and relaxation
   IWAVPR =     11    prediction:  0-non 1-charg 2-wave 3-comb
   ISYM   =      2    0-nonsym 1-usesym 2-fastsym
   LCORR  =      T    Harris-Foulkes like correction to forces

   POTIM  = 0.1000    time-step for ionic-motion
   TEIN   =    0.0    initial temperature
   TEBEG  =    0.0;   TEEND  =   0.0 temperature during run
   SMASS  =  -3.00    Nose mass-parameter (am)
   estimated Nose-frequenzy (Omega)   =  0.10E-29 period in steps =****** mass=  -0.124E-26a.u.
   SCALEE = 1.0000    scale energy and forces
   NPACO  =    256;   APACO  = 16.0  distance and # of slots for P.C.
   PSTRESS=    0.0 pullay stress

  Mass of Ions in am
   POMASS =  22.99121.75 78.96
  Ionic Valenz
   ZVAL   =   1.00  5.00  6.00
  Atomic Wigner-Seitz radii
  virtual crystal weights
   VCA    =   1.00  1.00  1.00
   NELECT =     128.0000    total number of electrons
   NUPDOWN=      -1.0000    fix difference up-down

 DOS related values:
   EMIN   =  10.00;   EMAX   =-10.00  energy-range for DOS
   EFERMI =   0.00
   ISMEAR =     0;   SIGMA  =   0.05  broadening in eV -4-tet -1-fermi 0-gaus

 Electronic relaxation 2 (details)
   IALGO  =     38    algorithm
   LDIAG  =      T    sub-space diagonalisation (order eigenvalues)
   LSUBROT=      F    optimize rotation matrix (better conditioning)
   TURBO    =      0    0=normal 1=particle mesh
   IRESTART =      0    0=no restart 2=restart with 2 vectors
   NREBOOT  =      0    no. of reboots
   NMIN     =      0    reboot dimension
   EREF     =   0.00    reference energy to select bands
   IMIX   =      4    mixing-type and parameters
     AMIX     =   0.40;   BMIX     =  1.00
     AMIX_MAG =   1.60;   BMIX_MAG =  1.00
     AMIN     =   0.10
     WC   =   100.;   INIMIX=   1;  MIXPRE=   1;  MAXMIX= -45

 Intra band minimization:
   WEIMIN = 0.0010     energy-eigenvalue tresh-hold
   EBREAK =  0.30E-06  absolut break condition
   DEPER  =   0.30     relativ break condition

   TIME   =   0.40     timestep for ELM

  volume/ion in A,a.u.               =      30.00       202.46
  Fermi-wavevector in a.u.,A,eV,Ry     =   0.896278  1.693720 10.929761  0.803315
  Thomas-Fermi vector in A             =   2.018716

 Write flags
   LWAVE        =      F    write WAVECAR
[...]
 d Force =-0.4641194E-02[-0.467E-02,-0.461E-02]  d Ewald  = 0.3645658E-01-0.411E-01

[...]

 d Force = 0.1282910E-04[-0.240E-04, 0.497E-04]  d Energy = 0.5427628E-04-0.414E-04
 d Force =-0.5545983E-01[-0.555E-01,-0.554E-01]  d Ewald  = 0.1669010E+00-0.222E+00

[...]

 d Force = 0.1288292E-03[-0.989E-04, 0.357E-03]  d Energy = 0.7192757E-04 0.569E-04
 d Force =-0.4883347E-02[-0.513E-02,-0.464E-02]  d Ewald  = 0.6317314E+00-0.637E+00

[...]

 d Force =-0.1192014E-05[-0.157E-05,-0.819E-06]  d Energy =-0.1978397E-05 0.786E-06
 d Force =-0.5600656E-03[-0.560E-03,-0.560E-03]  d Ewald  =-0.1400578E-01 0.134E-01

[...]

 d Force = 0.4094569E-04[ 0.194E-04, 0.625E-04]  d Energy = 0.5395915E-04-0.130E-04
 d Force = 0.3393741E-01[ 0.339E-01, 0.340E-01]  d Ewald  = 0.2022590E-01 0.137E-01

[...]

 d Force = 0.1875546E-04[-0.135E-05, 0.389E-04]  d Energy = 0.3223423E-04-0.135E-04
 d Force = 0.6772184E-01[ 0.676E-01, 0.678E-01]  d Ewald  = 0.4029074E-01 0.274E-01

[...]

 d Force = 0.4666636E-04[-0.196E-04, 0.113E-03]  d Energy = 0.1288842E-03-0.822E-04
 d Force = 0.1048376E+00[ 0.105E+00, 0.105E+00]  d Ewald  =-0.3563146E+00 0.461E+00

[...]

 eigenvalues of (default mixing * dielectric matrix)
  average eigenvalue GAMMA=   1.2548
  1.2548

[...]

 d Force =-0.1658635E-03[-0.293E-03,-0.392E-04]  d Energy =-0.2762640E-03 0.110E-03
 d Force = 0.2093390E+00[ 0.209E+00, 0.210E+00]  d Ewald  =-0.7126971E+00 0.922E+00

[...]

 d Force = 0.9462650E-04[ 0.356E-04, 0.154E-03]  d Energy = 0.8030761E-04 0.143E-04
 d Force = 0.3664874E-01[ 0.366E-01, 0.367E-01]  d Ewald  =-0.2058069E+00 0.242E+00

 Conjugate gradient step on ions:
 trial-energy change:   -0.000080  1 .order   -0.000107   -0.000185   -0.000028
  (g-gl).g = 0.395E-03      g.g   = 0.379E-03  gl.gl    = 0.540E-03
 g(Force)  = 0.332E-03   g(Stress)= 0.475E-04 ortho     =-0.301E-04
 gamma     =   0.73080
 trial     =   0.51836
 opt step  =   0.61066  (harmonic =   0.61066) maximal distance =0.00035963
 next E    =  -100.219614   (d E  =  -0.00011)

[...]

 eigenvalue-minimisations  :   504
 total energy-change (2. order) : 0.8195957E-06  (-0.5550825E-06)
 number of electron     127.9999939 magnetization
 augmentation part      -22.2338028 magnetization

[...]

 d Force = 0.6423144E-05[ 0.651E-05, 0.634E-05]  d Energy =-0.1124151E-05 0.755E-05
 d Force = 0.6519911E-02[ 0.652E-02, 0.652E-02]  d Ewald  =-0.3664953E-01 0.432E-01

[...]

 Broyden mixing:
  rms(total) = 0.86477E-03    rms(broyden)= 0.86465E-03
  rms(prec ) = 0.10782E-02
  weight for this iteration     100.00

[...]

--------------------------------------- Iteration     57(   2)  ---------------------------------------

 eigenvalue-minimisations  :   546
 total energy-change (2. order) :-0.6168457E-06  (-0.2289894E-05)
 number of electron     127.9999940 magnetization
 augmentation part      -22.2334967 magnetization

 Free energy of the ion-electron system (eV)
  alpha Z        PSCENC =       105.99456186
  Ewald energy   TEWEN  =     -4070.91333257
  -Hartree energ DENC   =      -910.74166767
  -exchange      EXHF   =         0.00000000
  -V(xc)+E(xc)   XCENC  =      -519.38249628
  PAW double counting   =      6993.90597451    -6221.07062825
  entropy T*S    EENTRO =        -0.00000000
  eigenvalues    EBANDS =      -297.98576821
  atomic energy  EATOM  =      4819.97366116
  Solvation  Ediel_sol  =         0.00000000
  free energy    TOTEN  =      -100.21969544 eV

  energy without entropy =     -100.21969544  energy(sigma->0) =     -100.21969544

 average (electrostatic) potential at core
  the test charge radii are     1.1212  1.1712  1.0808
  (the norm of the test charge is              1.0000)
       1 -40.0445       2 -40.4293       3 -40.4293       4 -40.0445       5 -90.1840
       6 -90.0964       7 -90.1085       8 -90.2335       9 -90.1085      10 -90.1840
      11 -90.0964      12 -90.2335      13 -54.9510      14 -54.8148      15 -54.7244
      16 -54.6668      17 -55.0500      18 -54.8148      19 -54.6239      20 -55.0500
      21 -54.6239      22 -54.7105      23 -54.7105      24 -54.6668      25 -54.7244
      26 -54.9510

 E-fermi :   3.0697     XC(G=0):  -8.3820     alpha+bet : -8.4790

[...]

 k-point     6 :      -0.3333   -0.2500    0.2500
  band No.  band energies     occupation
      1     -10.5165      2.00000
      2     -10.2766      2.00000
      3     -10.1684      2.00000
      4      -9.8911      2.00000
      5      -9.8067      2.00000
      6      -9.6285      2.00000
      7      -9.3794      2.00000
      8      -9.3484      2.00000
      9      -9.3059      2.00000
     10      -9.2122      2.00000
     11      -9.1499      2.00000
     12      -9.1016      2.00000
     13      -9.0591      2.00000
     14      -9.0295      2.00000
     15      -6.1156      2.00000
     16      -5.9729      2.00000
     17      -5.7930      2.00000
     18      -5.7270      2.00000
     19      -5.3159      2.00000
     20      -5.0959      2.00000
     21      -5.0455      2.00000
     22      -4.7810      2.00000
     23      -1.8138      2.00000
     24      -1.5603      2.00000
     25      -1.3396      2.00000
     26      -1.1927      2.00000
     27      -1.0557      2.00000
     28      -0.9922      2.00000
     29      -0.7299      2.00000
     30      -0.6112      2.00000
     31      -0.5984      2.00000
     32      -0.4044      2.00000
     33      -0.2732      2.00000
     34      -0.1609      2.00000
     35      -0.0441      2.00000
     36       0.0116      2.00000
     37       0.0924      2.00000
     38       0.2206      2.00000
     39       0.2975      2.00000
     40       0.3561      2.00000
     41       0.4155      2.00000
     42       0.5183      2.00000
     43       0.6080      2.00000
     44       0.7581      2.00000
     45       0.7907      2.00000
     46       1.0330      2.00000
     47       1.1176      2.00000
     48       1.2330      2.00000
     49       1.3174      2.00000
     50       1.3968      2.00000
     51       1.5219      2.00000
     52       1.6430      2.00000
     53       1.6985      2.00000
     54       1.7535      2.00000
     55       1.9036      2.00000
     56       1.9414      2.00000
     57       1.9708      2.00000
     58       2.0471      2.00000
     59       2.1530      2.00000
     60       2.2841      2.00000
[...]
     70       4.9350      0.00000
     71       5.0527      0.00000
     72       5.1087      0.00000
     73       5.2388      0.00000
     74       5.4312      0.00000
     75       5.5632      0.00000
     76       5.6264      0.00000
     77       5.7411      0.00000
     78       5.7989      0.00000
     79       5.8810      0.00000
     80       6.0164      0.00000
     81       6.2007      0.00000
     82       6.4678      0.00000
     83       6.6232      0.00000
     84       6.7981      0.00000

 soft charge-density along one line, spin component           1
         0         1         2         3         4         5         6         7         8         9
 total charge-density along one line

------------------------ aborting loop because EDIFF is reached ----------------------------------------

[...]

  FORCE on cell =-STRESS in cart. coord.  units (eV):
  Direction    XX          YY          ZZ          XY          YZ          ZX
  Alpha Z   105.99456   105.99456   105.99456
  Ewald   -1142.53115 -1409.68138 -1518.71461    13.40551  -137.63150   107.67267
  Hartree   457.65380   253.77828   199.31196     6.22579   -99.25772    70.73906
  E(xc)    -478.06883  -477.59242  -478.31969     0.14890    -0.22519     1.05123
  Local   -1252.80891  -782.67889  -628.74390   -16.67564   236.63476  -172.43974
  n-local  1255.97433  1251.65264  1255.62530    -1.37602     0.94731    -6.81213
  augment  -197.48342  -197.06139  -198.75143     0.40863    -0.03741     1.60506
  Kinetic  1251.14346  1255.55322  1263.53298    -2.12415    -0.50029    -1.82083
  Fock        0.00000     0.00000     0.00000     0.00000     0.00000     0.00000
  Total      -0.12615    -0.03537    -0.06483     0.01302    -0.07003    -0.00468
  in kB      -0.25947    -0.07276    -0.13334     0.02678    -0.14404    -0.00962

 VOLUME and BASIS-vectors are now :
  energy-cutoff  :      300.00
  volume of cell :      778.97
      direct lattice vectors                 reciprocal lattice vectors
    -7.347190690  0.005050343 -0.301095956    -0.136300533  0.030321094  0.005244629
     2.086187592  9.396328760 -0.106488220     0.000778581  0.106056533 -0.017219620
    -0.839998997 -1.825097052-11.278847639     0.003631278 -0.001810764 -0.088638971

  length of vectors
     7.353359458  9.625721406 11.456394792     0.139730849  0.107448172  0.088731799

 FORCES acting on ions
    electron-ion (+dipol)            ewald-force                    non-local-force                 convergence-correction
   -.337E+01 0.427E+00 0.568E+01   0.307E+01 -.460E+00 -.597E+01   0.296E+00 0.321E-01 0.306E+00   -.822E-05 0.881E-04 -.477E-04
   0.284E+01 0.928E+01 -.469E+01   -.261E+01 -.872E+01 0.423E+01   -.209E+00 -.560E+00 0.440E+00   -.407E-04 -.191E-03 0.756E-04
   -.284E+01 -.928E+01 0.469E+01   0.261E+01 0.872E+01 -.423E+01   0.209E+00 0.560E+00 -.440E+00   0.407E-04 0.191E-03 -.756E-04
   0.337E+01 -.427E+00 -.568E+01   -.307E+01 0.460E+00 0.597E+01   -.296E+00 -.321E-01 -.306E+00   0.822E-05 -.881E-04 0.477E-04
   0.107E+02 -.393E+02 0.460E+01   -.152E+02 0.472E+02 -.135E+01   0.445E+01 -.790E+01 -.328E+01   0.512E-03 -.820E-03 0.830E-05
   -.645E+01 -.167E+02 0.934E+00   0.748E+01 0.142E+02 -.103E+02   -.107E+01 0.245E+01 0.942E+01   -.136E-02 0.289E-03 0.392E-03
   0.257E+02 -.429E+01 0.392E+01   -.320E+02 0.817E+00 0.105E+01   0.632E+01 0.351E+01 -.494E+01   -.127E-02 0.424E-04 -.374E-03
   0.101E+02 -.830E+01 -.364E+02   -.133E+02 0.423E+01 0.425E+02   0.317E+01 0.410E+01 -.613E+01   0.852E-03 0.158E-02 0.863E-03
   -.257E+02 0.429E+01 -.392E+01   0.320E+02 -.817E+00 -.105E+01   -.632E+01 -.351E+01 0.494E+01   0.127E-02 -.424E-04 0.374E-03
   -.107E+02 0.393E+02 -.460E+01   0.152E+02 -.472E+02 0.135E+01   -.445E+01 0.790E+01 0.328E+01   -.512E-03 0.820E-03 -.830E-05
   0.645E+01 0.167E+02 -.934E+00   -.748E+01 -.142E+02 0.103E+02   0.107E+01 -.245E+01 -.942E+01   0.136E-02 -.289E-03 -.392E-03
   -.101E+02 0.830E+01 0.364E+02   0.133E+02 -.423E+01 -.425E+02   -.317E+01 -.410E+01 0.613E+01   -.852E-03 -.158E-02 -.863E-03
   0.174E+02 -.364E+01 -.355E+02   -.182E+02 0.392E+01 0.373E+02   0.792E+00 -.274E+00 -.180E+01   -.357E-04 -.830E-03 0.456E-03
   -.465E+01 -.478E+02 0.130E+02   0.492E+01 0.499E+02 -.137E+02   -.271E+00 -.214E+01 0.678E+00   0.344E-03 0.808E-03 -.188E-02
   0.322E+02 -.629E+02 -.735E+02   -.332E+02 0.644E+02 0.748E+02   0.103E+01 -.151E+01 -.136E+01   0.776E-04 -.161E-02 -.152E-03
   0.342E+02 -.788E+01 -.172E+02   -.362E+02 0.786E+01 0.179E+02   0.195E+01 0.177E-01 -.725E+00   -.353E-04 0.154E-03 -.702E-03
   0.180E+02 0.664E+02 0.734E+02   -.190E+02 -.673E+02 -.758E+02   0.987E+00 0.964E+00 0.243E+01   0.336E-03 0.206E-03 0.715E-03
   0.465E+01 0.478E+02 -.130E+02   -.492E+01 -.499E+02 0.137E+02   0.271E+00 0.214E+01 -.678E+00   -.344E-03 -.808E-03 0.188E-02
   -.384E+02 -.395E+02 0.520E+02   0.400E+02 0.399E+02 -.531E+02   -.156E+01 -.403E+00 0.110E+01   0.289E-03 0.615E-03 -.751E-03
   -.180E+02 -.664E+02 -.734E+02   0.190E+02 0.673E+02 0.758E+02   -.987E+00 -.964E+00 -.243E+01   -.336E-03 -.206E-03 -.715E-03
   0.384E+02 0.395E+02 -.520E+02   -.400E+02 -.399E+02 0.531E+02   0.156E+01 0.403E+00 -.110E+01   -.289E-03 -.615E-03 0.751E-03
   0.376E+02 0.188E+01 0.660E+02   -.388E+02 -.281E+01 -.677E+02   0.120E+01 0.938E+00 0.171E+01   0.428E-03 0.131E-02 0.453E-03
   -.376E+02 -.188E+01 -.660E+02   0.388E+02 0.281E+01 0.677E+02   -.120E+01 -.938E+00 -.171E+01   -.428E-03 -.131E-02 -.453E-03
   -.342E+02 0.788E+01 0.172E+02   0.362E+02 -.786E+01 -.179E+02   -.195E+01 -.177E-01 0.725E+00   0.353E-04 -.154E-03 0.702E-03
   -.322E+02 0.629E+02 0.735E+02   0.332E+02 -.644E+02 -.748E+02   -.103E+01 0.151E+01 0.136E+01   -.776E-04 0.161E-02 0.152E-03
   -.174E+02 0.364E+01 0.355E+02   0.182E+02 -.392E+01 -.373E+02   -.792E+00 0.274E+00 0.180E+01   0.357E-04 0.830E-03 -.456E-03
   0.139E-10 -.174E-10 0.145E-11   0.178E-13 0.440E-13 -.426E-13   0.222E-15 -.999E-15 0.222E-14   0.120E-12 -.219E-12 -.234E-11

 POSITION                                       TOTAL-FORCE (eV/Angst)
     -1.67083      3.01266     -1.47531        -0.005321     -0.000686      0.015722
     -2.05889      6.04241     -6.85593         0.016478      0.000998     -0.018845
     -4.04211      1.53387     -4.83051        -0.016478     -0.000998      0.018845
     -4.43018      4.56362    -10.21112         0.005321      0.000686     -0.015722
      1.57216      8.43918     -3.85821         0.014801     -0.020129     -0.041876
     -0.78442      2.72885     -9.20968        -0.042959      0.014009      0.019949
     -5.27400      1.13548     -0.80473         0.009605      0.026916      0.030739
     -4.06270      0.56627     -8.69466        -0.009882      0.037002      0.025341
     -0.82700      6.44080    -10.88170        -0.009605     -0.026916     -0.030739
     -7.67316     -0.86290     -7.82823        -0.014801      0.020129      0.041876
     -5.31658      4.84743     -2.47675         0.042959     -0.014009     -0.019949
     -2.03830      7.01001     -2.99177         0.009882     -0.037002     -0.025341
     -4.37072      7.74581     -1.79502         0.001450      0.004335      0.003843
     -5.01721      1.59599    -10.99826         0.002297     -0.001903     -0.006011
     -3.10512      3.04907     -7.95510         0.007127      0.013237     -0.002768
     -2.44346     -0.77772     -6.04605         0.011889      0.001212      0.003578
      0.75138      5.93364     -4.22582        -0.004661      0.004357      0.005497
     -1.08379      5.98030     -0.68817        -0.002297      0.001903      0.006011
     -3.07662      0.42536     -2.04655         0.008322      0.000735      0.016122
     -6.85238      1.64264     -7.46061         0.004661     -0.004357     -0.005497
     -3.02438      7.15092     -9.63988        -0.008322     -0.000735     -0.016122
     -6.32675      2.40920     -3.02513        -0.010217      0.009569      0.006080
      0.22575      5.16708     -8.66130         0.010217     -0.009569     -0.006080
     -3.65755      8.35400     -5.64038        -0.011889     -0.001212     -0.003578
     -2.99588      4.52721     -3.73133        -0.007127     -0.013237      0.002768
     -1.73028     -0.16952     -9.89142        -0.001450     -0.004335     -0.003843
    total drift:                                0.000000     -0.000000     -0.000000

  FREE ENERGIE OF THE ION-ELECTRON SYSTEM (eV)
  free  energy   TOTEN  =      -100.21969544 eV

  energy  without entropy=     -100.21969544  energy(sigma->0) =     -100.21969544

 d Force = 0.1241336E-03[ 0.673E-04, 0.181E-03]  d Energy = 0.1118202E-03 0.123E-04
 d Force =-0.1194844E-02[-0.121E-02,-0.118E-02]  d Ewald  = 0.1902509E-02-0.310E-02

 Conjugate gradient step on ions:
 trial-energy change:   -0.000112  1 .order   -0.000127   -0.000185   -0.000070
  (g-gl).g = 0.172E-03      g.g   = 0.330E-03  gl.gl    = 0.379E-03
 g(Force)  = 0.305E-03   g(Stress)= 0.248E-04 ortho     = 0.313E-04
 gamma     =   0.45373
 trial     =   0.53682
 opt step  =   0.86390  (harmonic =   0.86390) maximal distance =0.00057418
 next E    =  -100.219732   (d E  =  -0.00015)

 reached required accuracy - stopping structural energy minimisation

 total charge

# of ion       s       p       d       tot
    1        0.049   0.033   0.000   0.082
    2        0.041   0.025   0.000   0.066
    3        0.041   0.025   0.000   0.066
    4        0.049   0.033   0.000   0.082
    5        1.271   0.970   0.056   2.297
    6        1.272   0.973   0.057   2.302
    7        1.293   0.935   0.055   2.283
    8        1.299   0.912   0.056   2.268
    9        1.293   0.935   0.055   2.283
   10        1.271   0.970   0.056   2.297
   11        1.272   0.973   0.057   2.302
   12        1.299   0.912   0.056   2.268
   13        1.477   2.298   0.024   3.798
   14        1.471   2.318   0.022   3.810
   15        1.468   2.324   0.019   3.811
   16        1.474   2.313   0.022   3.808
   17        1.485   2.275   0.027   3.788
   18        1.471   2.318   0.022   3.810
   19        1.471   2.323   0.020   3.814
   20        1.485   2.275   0.027   3.788
   21        1.471   2.323   0.020   3.814
   22        1.470   2.319   0.018   3.807
   23        1.470   2.319   0.018   3.807
   24        1.474   2.313   0.022   3.808
   25        1.468   2.324   0.019   3.811
   26        1.477   2.298   0.024   3.798
tot         31.082  40.034   0.751  71.867