 vasp.5.4.4.18Apr17-6-g9f103f2a35 (build Oct 27 2022 13:04:57) complex

 executed on             LinuxIFC date 2024.06.30  00:43:06

 INCAR:
 POTCAR:    PAW_PBE K_pv 17Jan2003
 POTCAR:    PAW_PBE Bi 08Apr2002
 POTCAR:    PAW_PBE S 06Sep2000

 POTCAR:    PAW_PBE K_pv 17Jan2003
   VRHFIN =K:  p6s1

   TITEL  = PAW_PBE K_pv 17Jan2003
   POMASS =   39.098; ZVAL   =    7.000    mass and valenz
   ENMAX  =  116.731; ENMIN  =   87.548 eV

 POTCAR:    PAW_PBE Bi 08Apr2002
   VRHFIN =Bi:

   TITEL  = PAW_PBE Bi 08Apr2002
   POMASS =  208.980; ZVAL   =    5.000    mass and valenz
   ENMAX  =  105.037; ENMIN  =   78.777 eV

 POTCAR:    PAW_PBE S 06Sep2000
   VRHFIN =S : s2p4

   TITEL  = PAW_PBE S 06Sep2000
   POMASS =   32.066; ZVAL   =    6.000    mass and valenz
   ENMAX  =  258.689; ENMIN  =  194.016 eV

 Optimization of the real space projectors (new method)

 maximal supplied QI-value         = 12.09
 optimisation between [QCUT,QGAM] = [  8.83, 17.66] = [ 21.83, 87.31] Ry
 Optimized for a Real-space Cutoff    1.69 Angstroem

   l    n(q)    QCUT    max X(q) W(low)/X(q) W(high)/X(q)  e(spline)
   1      8     8.829    42.457    0.27E-03    0.59E-03    0.25E-06
   1      8     8.829    43.305    0.28E-03    0.61E-03    0.26E-06
   0      9     8.829    47.210    0.17E-02    0.12E-03    0.43E-06
   0      9     8.829    15.951    0.11E-02    0.76E-04    0.28E-06
   2      8     8.829     5.674    0.29E-03    0.69E-04    0.39E-07
 Optimization of the real space projectors (new method)

[...]

   l    n(q)    QCUT    max X(q) W(low)/X(q) W(high)/X(q)  e(spline)
   0      8     8.855    93.365    0.12E-03    0.22E-03    0.92E-07
   0      8     8.855    75.373    0.13E-03    0.24E-03    0.10E-06
   1      8     8.855    32.978    0.17E-02    0.62E-03    0.17E-06
   1      8     8.855    35.433    0.19E-02    0.68E-03    0.19E-06
   2      7     8.855     8.108    0.22E-03    0.34E-03    0.64E-07
 Optimization of the real space projectors (new method)

 maximal supplied QI-value         = 19.84
 optimisation between [QCUT,QGAM] = [  8.73, 17.66] = [ 21.34, 87.33] Ry
 Optimized for a Real-space Cutoff    1.22 Angstroem

   l    n(q)    QCUT    max X(q) W(low)/X(q) W(high)/X(q)  e(spline)
   0      6     8.731   187.594    0.15E-02    0.56E-03    0.90E-07
   0      6     8.731   164.243    0.15E-02    0.56E-03    0.89E-07
   1      6     8.731    67.533    0.37E-03    0.20E-02    0.11E-06
   1      6     8.731    50.729    0.36E-03    0.19E-02    0.10E-06
  PAW_PBE K_pv 17Jan2003                :
  PAW_PBE Bi 08Apr2002                  :
  PAW_PBE S 06Sep2000                   :

 POSCAR: K4 Bi8 S14
  positions in direct lattice
 exchange correlation table for  LEXCH =        8
   RHO(1)=    0.500       N(1)  =     2000
   RHO(2)=  100.500       N(2)  =     4000

 ion  position               nearest neighbor table
   1  0.250  0.568  0.812-  15 3.57  24 3.65  16 3.75  16 3.75  19 3.87  19 3.87  14 3.88  14 3.88
                            10 4.40  12 4.58   3 4.87   3 4.87
   2  0.750  0.432  0.188-  16 3.57  23 3.65  15 3.75  15 3.75  20 3.87  20 3.87  13 3.88  13 3.88
                             9 4.40  11 4.58   4 4.87   4 4.87
   3  0.750  0.829  0.623-  18 3.58  18 3.58  21 3.61  21 3.61  19 3.72  14 3.87  11 4.42   1 4.87
                             1 4.87
   4  0.250  0.171  0.377-  17 3.58  17 3.58  22 3.61  22 3.61  20 3.72  13 3.87  12 4.42   2 4.87
                             2 4.87
   5  0.250  0.946  0.880-  18 2.80  19 2.93  19 2.93  26 3.02  26 3.02  25 3.17
   6  0.750  0.054  0.120-  17 2.80  20 2.93  20 2.93  25 3.02  25 3.02  26 3.17
   7  0.250  0.832  0.275-  21 2.85  23 2.91  23 2.91  17 3.00  17 3.00  25 3.06
   8  0.750  0.168  0.725-  22 2.85  24 2.91  24 2.91  18 3.00  18 3.00  26 3.06
   9  0.750  0.731  0.051-  15 2.79  15 2.79  23 2.96  19 2.98  25 3.21  25 3.21   2 4.40
  10  0.250  0.269  0.949-  16 2.79  16 2.79  24 2.96  20 2.98  26 3.21  26 3.21   1 4.40
  11  0.750  0.607  0.428-  14 2.84  21 2.96  21 2.96  13 2.99  13 2.99  23 3.05   3 4.42   2 4.58

  12  0.250  0.393  0.572-  13 2.84  22 2.96  22 2.96  14 2.99  14 2.99  24 3.05   4 4.42   1 4.58

  13  0.250  0.458  0.393-  12 2.84  11 2.99  11 2.99   4 3.87   2 3.88   2 3.88
  14  0.750  0.542  0.607-  11 2.84  12 2.99  12 2.99   3 3.87   1 3.88   1 3.88
  15  0.250  0.598  0.038-   9 2.79   9 2.79   1 3.57   2 3.75   2 3.75
  16  0.750  0.402  0.962-  10 2.79  10 2.79   2 3.57   1 3.75   1 3.75
  17  0.750  0.986  0.295-   6 2.80   7 3.00   7 3.00   4 3.58   4 3.58
  18  0.250  0.014  0.705-   5 2.80   8 3.00   8 3.00   3 3.58   3 3.58
  19  0.750  0.798  0.863-   5 2.93   5 2.93   9 2.98   3 3.72   1 3.87   1 3.87
  20  0.250  0.202  0.137-   6 2.93   6 2.93  10 2.98   4 3.72   2 3.87   2 3.87
  21  0.250  0.755  0.452-   7 2.85  11 2.96  11 2.96   3 3.61   3 3.61
  22  0.750  0.245  0.548-   8 2.85  12 2.96  12 2.96   4 3.61   4 3.61
  23  0.750  0.692  0.240-   7 2.91   7 2.91   9 2.96  11 3.05   2 3.65
  24  0.250  0.308  0.760-   8 2.91   8 2.91  10 2.96  12 3.05   1 3.65
  25  0.250  0.904  0.083-   6 3.02   6 3.02   7 3.06   5 3.17   9 3.21   9 3.21
  26  0.750  0.096  0.917-   5 3.02   5 3.02   8 3.06   6 3.17  10 3.21  10 3.21

  LATTYP: Found a simple monoclinic cell.
 ALAT       =    21.3605926023
 B/A-ratio  =     0.1986841797
 C/A-ratio  =     1.5026816239
 COS(beta)  =    -0.9528717542

  Lattice vectors:

 A1 = (   0.0000000000, -14.6430014100, -15.5517660100)
 A2 = (  -4.2440118200,   0.0000000000,   0.0000000000)
 A3 = (   0.0000000000,  28.0564101800,  15.5926381300)

Analysis of symmetry for initial positions (statically):
 Subroutine PRICEL returns:
 Original cell was already a primitive cell.

 Routine SETGRP: Setting up the symmetry group for a
 simple monoclinic supercell.

 Subroutine GETGRP returns: Found  4 space group operations
 (whereof  2 operations were pure point group operations)
 out of a pool of  4 trial point group operations.

The static configuration has the point symmetry S_2 .
 The point group associated with its full space group is C_2h.

Analysis of symmetry for dynamics (positions and initial velocities):
 Subroutine PRICEL returns:
 Original cell was already a primitive cell.

 Routine SETGRP: Setting up the symmetry group for a
 simple monoclinic supercell.

 Subroutine GETGRP returns: Found  4 space group operations
 (whereof  2 operations were pure point group operations)
 out of a pool of  4 trial point group operations.

The dynamic configuration has the point symmetry S_2 .
 The point group associated with its full space group is C_2h.

 Subroutine INISYM returns: Found  4 space group operations
 (whereof  2 operations are pure point group operations),
 and found     1 'primitive' translations

 KPOINTS: pymatgen with grid density = 807 / numbe

Automatic generation of k-mesh.
Space group operators:
 irot       det(A)        alpha          n_x          n_y          n_z        tau_x        tau_y        tau_z
    1     1.000000     0.000000     1.000000     0.000000     0.000000     0.000000     0.000000     0.000000
    2    -1.000000     0.000000     1.000000     0.000000     0.000000     0.000000     0.000000     0.000000
    3     1.000000   180.000000     1.000000     0.000000     0.000000    -0.500000    -0.000000    -0.000000
    4    -1.000000   180.000000     1.000000     0.000000     0.000000    -0.500000     0.000000     0.000000

 Subroutine IBZKPT returns following result:

 Found      6 irreducible k-points:

 Following reciprocal coordinates:
            Coordinates               Weight
  0.000000  0.250000  0.250000      2.000000
  0.200000  0.250000  0.250000      4.000000
  0.400000  0.250000  0.250000      4.000000
  0.000000 -0.250000  0.250000      2.000000
  0.200000 -0.250000  0.250000      4.000000
  0.400000 -0.250000  0.250000      4.000000

 Following cartesian coordinates:
            Coordinates               Weight
  0.000000  0.018593  0.014644      2.000000
  0.047125  0.018593  0.014644      4.000000
  0.094250  0.018593  0.014644      4.000000
  0.000000 -0.018692  0.017599      2.000000
  0.047125 -0.018692  0.017599      4.000000
  0.094250 -0.018692  0.017599      4.000000

 SYSTEM =  CIS
 POSCAR =  K4 Bi8 S14

 Startparameter for this run:
   NWRITE =      2    write-flag & timer
   PREC   = medium    normal or accurate (medium, high low for compatibility)
   ISTART =      0    job   : 0-new  1-cont  2-samecut
   ICHARG =      2    charge: 1-file 2-atom 10-const
   ISPIN  =      1    spin polarized calculation?
   LNONCOLLINEAR =      F non collinear calculations
   LSORBIT =      F    spin-orbit coupling
   INIWAV =      1    electr: 0-lowe 1-rand  2-diag
   LASPH  =      T    aspherical Exc in radial PAW
   METAGGA=      F    non-selfconsistent MetaGGA calc.

 Electronic Relaxation 1
   ENCUT  =  300.0 eV  22.05 Ry    4.70 a.u.   5.99 18.94 21.97*2*pi/ulx,y,z
   ENINI  =  300.0     initial cutoff
   ENAUG  =  335.1 eV  augmentation charge cutoff
   NELM   =     60;   NELMIN=  2; NELMDL= -5     # of ELM steps
   EDIFF  = 0.1E-03   stopping-criterion for ELM
   LREAL  =      T    real-space projection
   NLSPLINE    = F    spline interpolate recip. space projectors
   LCOMPAT=      F    compatible to vasp.4.4
   GGA_COMPAT  = T    GGA compatible to vasp.4.4-vasp.4.6
   LMAXPAW     = -100 max onsite density
   LMAXMIX     =    4 max onsite mixed and CHGCAR
   VOSKOWN=      0    Vosko Wilk Nusair interpolation
   ROPT   =   -0.00200  -0.00200  -0.00200
 Ionic relaxation
   EDIFFG = -.5E-01   stopping-criterion for IOM
   NSW    =     99    number of steps for IOM
   NBLOCK =      1;   KBLOCK =     99    inner block; outer block
   IBRION =      2    ionic relax: 0-MD 1-quasi-New 2-CG
   NFREE  =      1    steps in history (QN), initial steepest desc. (CG)
   ISIF   =      3    stress and relaxation
   IWAVPR =     11    prediction:  0-non 1-charg 2-wave 3-comb
   ISYM   =      2    0-nonsym 1-usesym 2-fastsym
   LCORR  =      T    Harris-Foulkes like correction to forces

   POTIM  = 0.1000    time-step for ionic-motion
   TEIN   =    0.0    initial temperature
   TEBEG  =    0.0;   TEEND  =   0.0 temperature during run
   SMASS  =  -3.00    Nose mass-parameter (am)
   estimated Nose-frequenzy (Omega)   =  0.10E-29 period in steps =****** mass=  -0.412E-27a.u.
   SCALEE = 1.0000    scale energy and forces
   NPACO  =    256;   APACO  = 16.0  distance and # of slots for P.C.
   PSTRESS=    0.0 pullay stress

  Mass of Ions in am
   POMASS =  39.10208.98 32.07
  Ionic Valenz
   ZVAL   =   7.00  5.00  6.00
  Atomic Wigner-Seitz radii
  virtual crystal weights
   VCA    =   1.00  1.00  1.00
   NELECT =     152.0000    total number of electrons
   NUPDOWN=      -1.0000    fix difference up-down

 DOS related values:
   EMIN   =  10.00;   EMAX   =-10.00  energy-range for DOS
   EFERMI =   0.00
   ISMEAR =     0;   SIGMA  =   0.05  broadening in eV -4-tet -1-fermi 0-gaus

 Electronic relaxation 2 (details)
   IALGO  =     38    algorithm
   LDIAG  =      T    sub-space diagonalisation (order eigenvalues)
   LSUBROT=      F    optimize rotation matrix (better conditioning)
   TURBO    =      0    0=normal 1=particle mesh
[...]

[...]

 d Force = 0.2726115E-02[-0.101E-02, 0.646E-02]  d Energy = 0.7699657E-02-0.497E-02
 d Force =-0.2073210E+01[-0.218E+01,-0.197E+01]  d Ewald  =-0.7199319E+01 0.513E+01

[...]

 d Force = 0.1311178E-02[ 0.220E-03, 0.240E-02]  d Energy =-0.1513534E-02 0.282E-02
 d Force = 0.2803440E+01[ 0.275E+01, 0.286E+01]  d Ewald  =-0.2171997E+01 0.498E+01

[...]

 d Force =-0.8844538E-05[ 0.115E-03,-0.133E-03]  d Energy = 0.1589874E-02-0.160E-02
 d Force =-0.1663871E+01[-0.168E+01,-0.165E+01]  d Ewald  = 0.1313816E+01-0.298E+01

[...]

 d Force =-0.9436205E-04[-0.227E-03, 0.383E-04]  d Energy = 0.1217594E-03-0.216E-03
 d Force =-0.5563327E+00[-0.558E+00,-0.554E+00]  d Ewald  = 0.4245532E+00-0.981E+00

[...]

 d Force =-0.2046377E-03[-0.690E-02, 0.649E-02]  d Energy =-0.6293399E-03 0.425E-03
 d Force = 0.5292445E+01[ 0.510E+01, 0.549E+01]  d Ewald  = 0.1011214E+02-0.482E+01

[...]

 d Force = 0.1929091E-02[ 0.281E-03, 0.358E-02]  d Energy = 0.2558899E-02-0.630E-03
 d Force =-0.2708683E+01[-0.276E+01,-0.266E+01]  d Ewald  =-0.5189297E+01 0.248E+01

[...]

 d Force = 0.2370648E-02[-0.699E-03, 0.544E-02]  d Energy = 0.1635138E-02 0.736E-03
 d Force = 0.4777912E+01[ 0.469E+01, 0.486E+01]  d Ewald  = 0.2908327E+01 0.187E+01

[...]

 d Force =-0.3410609E-04[-0.238E-03, 0.170E-03]  d Energy = 0.2549461E-03-0.289E-03
 d Force =-0.1152218E+01[-0.116E+01,-0.115E+01]  d Ewald  =-0.6941014E+00-0.458E+00

[...]

 d Force = 0.6852923E-03[ 0.397E-03, 0.973E-03]  d Energy = 0.4559805E-03 0.229E-03
 d Force = 0.1212154E+01[ 0.120E+01, 0.122E+01]  d Ewald  = 0.4913629E+01-0.370E+01

[...]

 d Force = 0.9952763E-03[ 0.792E-03, 0.120E-02]  d Energy = 0.1348814E-02-0.354E-03
 d Force = 0.5419719E+00[ 0.539E+00, 0.545E+00]  d Ewald  =-0.8477938E+00 0.139E+01

 Conjugate gradient step on ions:
 trial-energy change:   -0.001349  1 .order   -0.001477   -0.001631   -0.001323
  (g-gl).g = 0.308E-03      g.g   = 0.335E-03  gl.gl    = 0.866E-03
 g(Force)  = 0.197E-03   g(Stress)= 0.138E-03 ortho     =-0.348E-04
 gamma     =   0.35625
 trial     =   5.05242
 opt step  =  20.20966  (harmonic =  26.72257) maximal distance =0.01561080
 next E    =  -109.339031   (d E  =  -0.00431)

[...]

 d Force = 0.1708259E-03[-0.204E-02, 0.238E-02]  d Energy =-0.1307349E-02 0.148E-02
 d Force = 0.1586725E+01[ 0.156E+01, 0.162E+01]  d Ewald  =-0.2582279E+01 0.417E+01

[...]

 d Force = 0.6842390E-03[ 0.314E-03, 0.105E-02]  d Energy = 0.1533192E-02-0.849E-03
 d Force =-0.8127351E+00[-0.821E+00,-0.804E+00]  d Ewald  = 0.1348262E+01-0.216E+01

[...]

 eigenvalue-minimisations  :  1442
 total energy-change (2. order) :-0.2013205E-04  (-0.1170454E-03)
 number of electron     152.0001272 magnetization
 augmentation part       -9.4790983 magnetization

 Broyden mixing:
  rms(total) = 0.44653E-02    rms(broyden)= 0.44649E-02
  rms(prec ) = 0.48554E-02
  weight for this iteration     100.00

 eigenvalues of (default mixing * dielectric matrix)
  average eigenvalue GAMMA=   0.7746
  0.7746

[...]

--------------------------------------- Iteration     38(   3)  ---------------------------------------

 eigenvalue-minimisations  :   686
 total energy-change (2. order) : 0.1566160E-04  (-0.4275796E-05)
 number of electron     152.0001272 magnetization
 augmentation part       -9.4790983 magnetization

 Free energy of the ion-electron system (eV)
  alpha Z        PSCENC =       243.42446377
  Ewald energy   TEWEN  =     -5779.39449026
  -Hartree energ DENC   =     -1198.58954572
  -exchange      EXHF   =         0.00000000
  -V(xc)+E(xc)   XCENC  =      -659.50562335
  PAW double counting   =      9970.79155767    -8977.11242800
  entropy T*S    EENTRO =        -0.00000000
  eigenvalues    EBANDS =      -592.79120264
  atomic energy  EATOM  =      6883.84084810
  Solvation  Ediel_sol  =         0.00000000
  free energy    TOTEN  =      -109.33642044 eV

  energy without entropy =     -109.33642044  energy(sigma->0) =     -109.33642044

 average (electrostatic) potential at core
  the test charge radii are     1.3383  1.4024  0.9698
  (the norm of the test charge is              1.0000)
       1 -11.2306       2 -11.2306       3 -11.1244       4 -11.1244       5 -64.6672
       6 -64.6672       7 -64.5892       8 -64.5892       9 -64.4881      10 -64.4881
      11 -64.5834      12 -64.5834      13 -87.9952      14 -87.9952      15 -87.8324
      16 -87.8324      17 -88.0151      18 -88.0151      19 -88.0210      20 -88.0210
      21 -87.9712      22 -87.9712      23 -88.1533      24 -88.1533      25 -88.1798
      26 -88.1798

 E-fermi :   2.8608     XC(G=0):  -8.6335     alpha+bet : -8.5144

[...]

 k-point     6 :       0.4000   -0.2500    0.2500
  band No.  band energies     occupation
      1     -10.7787      2.00000
      2     -10.7753      2.00000
      3     -10.7343      2.00000
      4     -10.7271      2.00000
      5     -10.6659      2.00000
      6     -10.6650      2.00000
      7     -10.6354      2.00000
      8     -10.6273      2.00000
      9     -10.5908      2.00000
     10     -10.5899      2.00000
     11     -10.5665      2.00000
     12     -10.5585      2.00000
     13     -10.0459      2.00000
     14      -9.9684      2.00000
     15      -9.5693      2.00000
     16      -9.5104      2.00000
     17      -9.4759      2.00000
     18      -9.2642      2.00000
     19      -9.1742      2.00000
     20      -9.0895      2.00000
     21      -9.0137      2.00000
     22      -8.9630      2.00000
     23      -8.9426      2.00000
     24      -8.8979      2.00000
     25      -8.7811      2.00000
     26      -8.6766      2.00000
     27      -7.7448      2.00000
     28      -7.5597      2.00000
     29      -7.4495      2.00000
     30      -7.2936      2.00000
     31      -7.1656      2.00000
     32      -7.1301      2.00000
     33      -6.7718      2.00000
     34      -6.7411      2.00000
     35      -2.0191      2.00000
     36      -1.8787      2.00000
     37      -1.7314      2.00000
     38      -1.6660      2.00000
     39      -1.4311      2.00000
     40      -1.3716      2.00000
     41      -1.2134      2.00000
     42      -1.0587      2.00000
     43      -0.9966      2.00000
     44      -0.9274      2.00000
     45      -0.7901      2.00000
     46      -0.5715      2.00000
     47      -0.5036      2.00000
     48      -0.4180      2.00000
     49      -0.4111      2.00000
     50      -0.3365      2.00000
     51      -0.3068      2.00000
     52      -0.2315      2.00000
     53      -0.1346      2.00000
     54       0.0718      2.00000
     55       0.2133      2.00000
     56       0.3094      2.00000
     57       0.4035      2.00000
     58       0.5258      2.00000
     59       0.9985      2.00000
     60       1.0672      2.00000
[...]
     84       5.5300      0.00000
     85       5.6754      0.00000
     86       5.7165      0.00000
     87       5.7840      0.00000
     88       5.8530      0.00000
     89       6.1344      0.00000
     90       6.2221      0.00000
     91       6.2916      0.00000
     92       6.3815      0.00000
     93       6.4600      0.00000
     94       6.5072      0.00000
     95       6.6514      0.00000
     96       6.6951      0.00000
     97       6.8198      0.00000
     98       7.0662      0.00000

 soft charge-density along one line, spin component           1
         0         1         2         3         4         5         6         7         8         9
 total charge-density along one line

------------------------ aborting loop because EDIFF is reached ----------------------------------------

[...]

  FORCE on cell =-STRESS in cart. coord.  units (eV):
  Direction    XX          YY          ZZ          XY          YZ          ZX
  Alpha Z   243.42446   243.42446   243.42446
  Ewald   -1794.47369 -1967.76505 -2017.17550    -0.00000    12.13207     0.00000
  Hartree   487.17851   386.12898   325.14425    -0.00000    22.14070    -0.00000
  E(xc)    -577.36824  -577.15400  -577.18124     0.00000     0.36666    -0.00000
  Local   -1007.86350  -738.36219  -627.45538    -0.00000   -38.62541    -0.00000
  n-local  1510.10465  1507.05820  1509.74680    -0.03918    -1.97022     0.08394
  augment  -434.26896  -433.78964  -433.17335     0.00000     0.45904    -0.00000
  Kinetic  1572.95104  1580.25847  1576.66352     0.01226     5.34973     0.10211
  Fock        0.00000     0.00000     0.00000     0.00000     0.00000     0.00000
  Total      -0.31574    -0.20076    -0.00643     0.00000    -0.14744     0.00000
  in kB      -0.67330    -0.42812    -0.01371     0.00000    -0.31440     0.00000

 VOLUME and BASIS-vectors are now :
  energy-cutoff  :      300.00
  volume of cell :      751.33
      direct lattice vectors                 reciprocal lattice vectors
     4.101165484  0.000000000  0.000000000     0.243833126  0.000000000  0.000000000
     0.000000000 12.672025290 -0.284992162     0.000000000  0.078817306 -0.004298730
     0.000000000  0.787522492 14.439242781     0.000000000  0.001555644  0.069170864

  length of vectors
     4.101165484 12.675229603 14.460702741     0.243833126  0.078934446  0.069188355

 FORCES acting on ions
    electron-ion (+dipol)            ewald-force                    non-local-force                 convergence-correction
   -.131E-12 -.245E+02 0.507E+02   -.127E-14 0.242E+02 -.495E+02   0.000E+00 0.330E+00 -.121E+01   0.957E-14 -.656E-02 -.826E-02
   -.410E-13 0.245E+02 -.507E+02   0.694E-14 -.242E+02 0.495E+02   0.000E+00 -.330E+00 0.121E+01   0.128E-13 0.656E-02 0.826E-02
   -.568E-12 -.883E+01 0.258E+02   0.822E-14 0.934E+01 -.259E+02   0.217E-18 -.523E+00 0.121E+00   0.162E-14 -.535E-03 0.193E-02
   -.665E-12 0.883E+01 -.258E+02   -.129E-13 -.934E+01 0.259E+02   -.217E-18 0.523E+00 -.121E+00   0.125E-13 0.535E-03 -.193E-02
   0.293E-11 0.170E+02 0.131E+02   -.879E-14 -.167E+02 -.106E+02   0.000E+00 -.302E+00 -.253E+01   -.391E-14 0.294E-02 -.303E-02
   0.290E-11 -.170E+02 -.131E+02   0.102E-13 0.167E+02 0.106E+02   0.000E+00 0.302E+00 0.253E+01   0.229E-14 -.294E-02 0.303E-02
   0.950E-12 -.176E+02 -.362E+02   0.695E-14 0.188E+02 0.353E+02   -.867E-18 -.124E+01 0.936E+00   -.356E-14 -.574E-02 0.210E-02
   0.951E-12 0.176E+02 0.362E+02   -.358E-14 -.188E+02 -.353E+02   0.867E-18 0.124E+01 -.936E+00   0.234E-14 0.574E-02 -.210E-02
   0.221E-11 -.335E+01 0.917E+01   -.110E-14 0.728E+01 -.893E+01   -.542E-19 -.396E+01 -.218E+00   0.187E-14 0.642E-02 0.381E-02
   0.223E-11 0.335E+01 -.917E+01   0.321E-14 -.728E+01 0.893E+01   0.542E-19 0.396E+01 0.218E+00   -.384E-14 -.642E-02 -.381E-02
   0.537E-13 -.953E+00 -.375E+01   0.185E-13 0.109E+01 0.222E+01   -.173E-17 -.142E+00 0.152E+01   0.106E-14 0.142E-02 -.313E-02
   0.864E-13 0.953E+00 0.375E+01   -.141E-13 -.109E+01 -.222E+01   0.173E-17 0.142E+00 -.152E+01   -.245E-14 -.142E-02 0.313E-02
   0.235E-12 0.349E+02 0.324E+02   -.326E-14 -.364E+02 -.351E+02   -.217E-18 0.156E+01 0.268E+01   -.143E-14 0.508E-02 0.619E-02
   0.222E-12 -.349E+02 -.324E+02   -.219E-14 0.364E+02 0.351E+02   0.217E-18 -.156E+01 -.268E+01   0.590E-14 -.508E-02 -.619E-02
   0.439E-13 0.179E+02 -.647E+01   -.270E-14 -.222E+02 0.559E+01   -.434E-18 0.428E+01 0.850E+00   -.370E-14 0.177E-01 0.888E-02
   0.336E-13 -.179E+02 0.647E+01   -.238E-15 0.222E+02 -.559E+01   0.434E-18 -.428E+01 -.850E+00   0.837E-14 -.177E-01 -.888E-02
   -.687E-13 -.179E+02 -.811E+02   -.253E-15 0.194E+02 0.839E+02   -.867E-18 -.150E+01 -.274E+01   0.584E-14 -.111E-02 -.122E-02
   -.423E-13 0.179E+02 0.811E+02   -.560E-14 -.194E+02 -.839E+02   0.867E-18 0.150E+01 0.274E+01   0.197E-14 0.111E-02 0.122E-02
   0.118E-11 0.323E+02 0.460E+02   -.116E-13 -.344E+02 -.473E+02   -.434E-18 0.213E+01 0.136E+01   0.122E-13 0.123E-01 -.303E-02
   0.119E-11 -.323E+02 -.460E+02   0.104E-13 0.344E+02 0.473E+02   0.434E-18 -.213E+01 -.136E+01   -.453E-14 -.123E-01 0.303E-02
   -.155E-11 -.504E+02 -.351E+02   -.406E-14 0.520E+02 0.377E+02   0.173E-17 -.162E+01 -.259E+01   -.972E-15 0.979E-04 -.160E-01
   -.156E-11 0.504E+02 0.351E+02   0.139E-13 -.520E+02 -.377E+02   -.173E-17 0.162E+01 0.259E+01   0.117E-13 -.979E-04 0.160E-01
   0.228E-11 0.259E+02 -.198E+02   -.140E-13 -.283E+02 0.192E+02   0.000E+00 0.232E+01 0.666E+00   0.833E-14 0.158E-01 0.165E-01
   0.230E-11 -.259E+02 0.198E+02   0.146E-13 0.283E+02 -.192E+02   0.000E+00 -.232E+01 -.666E+00   -.163E-14 -.158E-01 -.165E-01
   0.344E-11 0.195E+01 0.923E+00   -.124E-13 -.247E+01 -.165E+01   0.000E+00 0.526E+00 0.711E+00   -.246E-14 -.298E-02 0.284E-02
   0.342E-11 -.195E+01 -.923E+00   0.113E-13 0.247E+01 0.165E+01   0.000E+00 -.526E+00 -.711E+00   0.144E-13 0.298E-02 -.284E-02
   0.220E-10 -.481E-09 -.499E-09   0.630E-14 0.711E-13 0.213E-13   0.000E+00 -.999E-15 -.999E-15   0.844E-13 0.411E-12 0.650E-12

 POSITION                                       TOTAL-FORCE (eV/Angst)
      1.02529      7.76109     11.63242        -0.000000     -0.014768      0.016099
      3.07587      5.69846      2.52183         0.000000      0.014768     -0.016099
      3.07587     10.98919      8.72885        -0.000000     -0.010242      0.017870
      1.02529      2.47036      5.42540        -0.000000      0.010242     -0.017870
      1.02529     12.56368     12.34161        -0.000000      0.005676     -0.032135
      3.07587      0.89587      1.81264        -0.000000     -0.005676      0.032135
      1.02529     10.85650      3.84359        -0.000000     -0.002629      0.004898
      3.07587      2.60305     10.31066        -0.000000      0.002629     -0.004898
      3.07587      9.28146      0.48277        -0.000000     -0.021039      0.024267
      1.02529      4.17808     13.67148        -0.000000      0.021039     -0.024267
      3.07587      8.03478      6.04403        -0.000000     -0.003066     -0.015197
      1.02529      5.42477      8.11022        -0.000000      0.003066      0.015197
      1.02529      6.10107      5.44700        -0.000000      0.013855      0.009227
      3.07587      7.35848      8.70725        -0.000000     -0.013855     -0.009227
      1.02529      7.57066      0.35789        -0.000000      0.028845     -0.017507
      3.07587      5.88889     13.79636        -0.000000     -0.028845      0.017507
      3.07587     12.88962      4.13365        -0.000000      0.001596     -0.022495
      1.02529      0.56993     10.02060        -0.000000     -0.001596      0.022495
      3.07587     10.62242     12.06700        -0.000000      0.046722      0.015576
      1.02529      2.83713      2.08725        -0.000000     -0.046722     -0.015576
      1.02529      9.97932      6.44821        -0.000000     -0.004120     -0.002372
      3.07587      3.48023      7.70604        -0.000000      0.004120      0.002372
      3.07587      9.01513      3.28590        -0.000000      0.008367      0.016931
      1.02529      4.44442     10.86835        -0.000000     -0.008367     -0.016931
      1.02529     11.57450      0.98547        -0.000000      0.005327     -0.018433
      3.07587      1.88505     13.16878        -0.000000     -0.005327      0.018433
    total drift:                                0.000000     -0.000000     -0.000000

  FREE ENERGIE OF THE ION-ELECTRON SYSTEM (eV)
  free  energy   TOTEN  =      -109.33642044 eV

  energy  without entropy=     -109.33642044  energy(sigma->0) =     -109.33642044

 d Force = 0.4182040E-04[-0.123E-05, 0.849E-04]  d Energy = 0.1283205E-03-0.865E-04
 d Force =-0.2229194E+00[-0.224E+00,-0.222E+00]  d Ewald  = 0.3619261E+00-0.585E+00

 reached required accuracy - stopping structural energy minimisation

 total charge

# of ion       s       p       d       tot
    1        0.056   6.039   0.054   6.149
    2        0.056   6.039   0.054   6.149
    3        0.070   6.069   0.069   6.209
    4        0.070   6.069   0.069   6.209
    5        1.836   1.420   0.166   3.421
    6        1.836   1.420   0.166   3.421
    7        1.847   1.403   0.174   3.424
    8        1.847   1.403   0.174   3.424
    9        1.824   1.483   0.165   3.472
   10        1.824   1.483   0.165   3.472
   11        1.845   1.404   0.175   3.425
   12        1.845   1.404   0.175   3.425
   13        1.347   2.333   0.000   3.679
   14        1.347   2.333   0.000   3.679
   15        1.357   2.325   0.000   3.682
   16        1.357   2.325   0.000   3.682
   17        1.346   2.349   0.000   3.695
   18        1.346   2.349   0.000   3.695
   19        1.347   2.333   0.000   3.680
   20        1.347   2.333   0.000   3.680
   21        1.345   2.351   0.000   3.696
   22        1.345   2.351   0.000   3.696
   23        1.350   2.344   0.000   3.695
   24        1.350   2.344   0.000   3.695
   25        1.351   2.330   0.000   3.681
   26        1.351   2.330   0.000   3.681
tot         33.846  68.365   1.604 103.815