 vasp.5.4.4.18Apr17-6-g9f103f2a35 (build Oct 27 2022 13:04:57) complex

 executed on             LinuxIFC date 2024.06.29  04:07:44

 INCAR:
 POTCAR:    PAW_PBE Na 08Apr2002
 POTCAR:    PAW_PBE Bi 08Apr2002
 POTCAR:    PAW_PBE S 06Sep2000

 POTCAR:    PAW_PBE Na 08Apr2002
   VRHFIN =Na: s1p0

   TITEL  = PAW_PBE Na 08Apr2002
   POMASS =   22.990; ZVAL   =    1.000    mass and valenz
   ENMAX  =  101.968; ENMIN  =   76.476 eV

 POTCAR:    PAW_PBE Bi 08Apr2002
   VRHFIN =Bi:

   TITEL  = PAW_PBE Bi 08Apr2002
   POMASS =  208.980; ZVAL   =    5.000    mass and valenz
   ENMAX  =  105.037; ENMIN  =   78.777 eV

 POTCAR:    PAW_PBE S 06Sep2000
   VRHFIN =S : s2p4

   TITEL  = PAW_PBE S 06Sep2000
   POMASS =   32.066; ZVAL   =    6.000    mass and valenz
   ENMAX  =  258.689; ENMIN  =  194.016 eV

 Optimization of the real space projectors (new method)

 maximal supplied QI-value         = 17.01
 optimisation between [QCUT,QGAM] = [  8.84, 17.69] = [ 21.90, 87.61] Ry
 Optimized for a Real-space Cutoff    1.22 Angstroem

   l    n(q)    QCUT    max X(q) W(low)/X(q) W(high)/X(q)  e(spline)
   0      6     8.844    45.123    0.62E-03    0.70E-03    0.80E-07
   0      6     8.844    12.364    0.51E-03    0.48E-03    0.55E-07
   1      6     8.844     8.302    0.36E-03    0.27E-03    0.23E-07
 Optimization of the real space projectors (new method)

[...]

   l    n(q)    QCUT    max X(q) W(low)/X(q) W(high)/X(q)  e(spline)
   0      8     8.855    93.365    0.12E-03    0.22E-03    0.92E-07
   0      8     8.855    75.373    0.13E-03    0.24E-03    0.10E-06
   1      8     8.855    32.978    0.17E-02    0.62E-03    0.17E-06
   1      8     8.855    35.433    0.19E-02    0.68E-03    0.19E-06
   2      7     8.855     8.108    0.22E-03    0.34E-03    0.64E-07
 Optimization of the real space projectors (new method)

 maximal supplied QI-value         = 19.84
 optimisation between [QCUT,QGAM] = [  8.73, 17.66] = [ 21.34, 87.33] Ry
 Optimized for a Real-space Cutoff    1.22 Angstroem

   l    n(q)    QCUT    max X(q) W(low)/X(q) W(high)/X(q)  e(spline)
   0      6     8.731   187.594    0.15E-02    0.56E-03    0.90E-07
   0      6     8.731   164.243    0.15E-02    0.56E-03    0.89E-07
   1      6     8.731    67.533    0.37E-03    0.20E-02    0.11E-06
   1      6     8.731    50.729    0.36E-03    0.19E-02    0.10E-06
  PAW_PBE Na 08Apr2002                  :
  PAW_PBE Bi 08Apr2002                  :
  PAW_PBE S 06Sep2000                   :

 POSCAR: Na4 Bi8 S14
  positions in direct lattice
 exchange correlation table for  LEXCH =        8
   RHO(1)=    0.500       N(1)  =     2000
   RHO(2)=  100.500       N(2)  =     4000

 ion  position               nearest neighbor table
   1  0.250  0.568  0.812-
   2  0.750  0.432  0.188-
   3  0.750  0.829  0.623-
   4  0.250  0.171  0.377-
   5  0.250  0.946  0.880-  18 2.80  19 2.93  19 2.93  26 3.02  26 3.02  25 3.17
   6  0.750  0.054  0.120-  17 2.80  20 2.93  20 2.93  25 3.02  25 3.02  26 3.17
   7  0.250  0.832  0.275-  21 2.85  23 2.91  23 2.91  17 3.00  17 3.00  25 3.06
   8  0.750  0.168  0.725-  22 2.85  24 2.91  24 2.91  18 3.00  18 3.00  26 3.06
   9  0.750  0.731  0.051-  15 2.79  15 2.79  23 2.96  19 2.98  25 3.21  25 3.21
  10  0.250  0.269  0.949-  16 2.79  16 2.79  24 2.96  20 2.98  26 3.21  26 3.21
  11  0.750  0.607  0.428-  14 2.84  21 2.96  21 2.96  13 2.99  13 2.99  23 3.05
  12  0.250  0.393  0.572-  13 2.84  22 2.96  22 2.96  14 2.99  14 2.99  24 3.05
  13  0.250  0.458  0.393-  12 2.84  11 2.99  11 2.99
  14  0.750  0.542  0.607-  11 2.84  12 2.99  12 2.99
  15  0.250  0.598  0.038-   9 2.79   9 2.79
  16  0.750  0.402  0.962-  10 2.79  10 2.79
  17  0.750  0.986  0.295-   6 2.80   7 3.00   7 3.00
  18  0.250  0.014  0.705-   5 2.80   8 3.00   8 3.00
  19  0.750  0.798  0.863-   5 2.93   5 2.93   9 2.98
  20  0.250  0.202  0.137-   6 2.93   6 2.93  10 2.98
  21  0.250  0.755  0.452-   7 2.85  11 2.96  11 2.96
  22  0.750  0.245  0.548-   8 2.85  12 2.96  12 2.96
  23  0.750  0.692  0.240-   7 2.91   7 2.91   9 2.96  11 3.05
  24  0.250  0.308  0.760-   8 2.91   8 2.91  10 2.96  12 3.05
  25  0.250  0.904  0.083-   6 3.02   6 3.02   7 3.06   5 3.17   9 3.21   9 3.21
  26  0.750  0.096  0.917-   5 3.02   5 3.02   8 3.06   6 3.17  10 3.21  10 3.21

  LATTYP: Found a simple monoclinic cell.
 ALAT       =    21.3605926023
 B/A-ratio  =     0.1986841797
 C/A-ratio  =     1.5026816239
 COS(beta)  =    -0.9528717542

  Lattice vectors:

 A1 = (   0.0000000000, -14.6430014100, -15.5517660100)
 A2 = (  -4.2440118200,   0.0000000000,   0.0000000000)
 A3 = (   0.0000000000,  28.0564101800,  15.5926381300)

Analysis of symmetry for initial positions (statically):
 Subroutine PRICEL returns:
 Original cell was already a primitive cell.

 Routine SETGRP: Setting up the symmetry group for a
 simple monoclinic supercell.

 Subroutine GETGRP returns: Found  4 space group operations
 (whereof  2 operations were pure point group operations)
 out of a pool of  4 trial point group operations.

The static configuration has the point symmetry S_2 .
 The point group associated with its full space group is C_2h.

Analysis of symmetry for dynamics (positions and initial velocities):
 Subroutine PRICEL returns:
 Original cell was already a primitive cell.

 Routine SETGRP: Setting up the symmetry group for a
 simple monoclinic supercell.

 Subroutine GETGRP returns: Found  4 space group operations
 (whereof  2 operations were pure point group operations)
 out of a pool of  4 trial point group operations.

The dynamic configuration has the point symmetry S_2 .
 The point group associated with its full space group is C_2h.

 Subroutine INISYM returns: Found  4 space group operations
 (whereof  2 operations are pure point group operations),
 and found     1 'primitive' translations

 KPOINTS: pymatgen with grid density = 807 / numbe

Automatic generation of k-mesh.
Space group operators:
 irot       det(A)        alpha          n_x          n_y          n_z        tau_x        tau_y        tau_z
    1     1.000000     0.000000     1.000000     0.000000     0.000000     0.000000     0.000000     0.000000
    2    -1.000000     0.000000     1.000000     0.000000     0.000000     0.000000     0.000000     0.000000
    3     1.000000   180.000000     1.000000     0.000000     0.000000    -0.500000    -0.000000    -0.000000
    4    -1.000000   180.000000     1.000000     0.000000     0.000000    -0.500000     0.000000     0.000000

 Subroutine IBZKPT returns following result:

 Found      6 irreducible k-points:

 Following reciprocal coordinates:
            Coordinates               Weight
  0.000000  0.250000  0.250000      2.000000
  0.200000  0.250000  0.250000      4.000000
  0.400000  0.250000  0.250000      4.000000
  0.000000 -0.250000  0.250000      2.000000
  0.200000 -0.250000  0.250000      4.000000
  0.400000 -0.250000  0.250000      4.000000

 Following cartesian coordinates:
            Coordinates               Weight
  0.000000  0.018593  0.014644      2.000000
  0.047125  0.018593  0.014644      4.000000
  0.094250  0.018593  0.014644      4.000000
  0.000000 -0.018692  0.017599      2.000000
  0.047125 -0.018692  0.017599      4.000000
  0.094250 -0.018692  0.017599      4.000000

 SYSTEM =  CIS
 POSCAR =  Na4 Bi8 S14

 Startparameter for this run:
   NWRITE =      2    write-flag & timer
   PREC   = medium    normal or accurate (medium, high low for compatibility)
   ISTART =      0    job   : 0-new  1-cont  2-samecut
   ICHARG =      2    charge: 1-file 2-atom 10-const
   ISPIN  =      1    spin polarized calculation?
   LNONCOLLINEAR =      F non collinear calculations
   LSORBIT =      F    spin-orbit coupling
   INIWAV =      1    electr: 0-lowe 1-rand  2-diag
   LASPH  =      T    aspherical Exc in radial PAW
   METAGGA=      F    non-selfconsistent MetaGGA calc.

 Electronic Relaxation 1
   ENCUT  =  300.0 eV  22.05 Ry    4.70 a.u.   5.99 18.94 21.97*2*pi/ulx,y,z
   ENINI  =  300.0     initial cutoff
   ENAUG  =  335.1 eV  augmentation charge cutoff
   NELM   =     60;   NELMIN=  2; NELMDL= -5     # of ELM steps
   EDIFF  = 0.1E-03   stopping-criterion for ELM
   LREAL  =      T    real-space projection
   NLSPLINE    = F    spline interpolate recip. space projectors
   LCOMPAT=      F    compatible to vasp.4.4
   GGA_COMPAT  = T    GGA compatible to vasp.4.4-vasp.4.6
   LMAXPAW     = -100 max onsite density
   LMAXMIX     =    4 max onsite mixed and CHGCAR
   VOSKOWN=      0    Vosko Wilk Nusair interpolation
   ROPT   =   -0.00200  -0.00200  -0.00200
 Ionic relaxation
   EDIFFG = -.5E-01   stopping-criterion for IOM
   NSW    =     99    number of steps for IOM
   NBLOCK =      1;   KBLOCK =     99    inner block; outer block
   IBRION =      2    ionic relax: 0-MD 1-quasi-New 2-CG
   NFREE  =      1    steps in history (QN), initial steepest desc. (CG)
   ISIF   =      3    stress and relaxation
   IWAVPR =     11    prediction:  0-non 1-charg 2-wave 3-comb
   ISYM   =      2    0-nonsym 1-usesym 2-fastsym
   LCORR  =      T    Harris-Foulkes like correction to forces

   POTIM  = 0.1000    time-step for ionic-motion
   TEIN   =    0.0    initial temperature
   TEBEG  =    0.0;   TEEND  =   0.0 temperature during run
   SMASS  =  -3.00    Nose mass-parameter (am)
   estimated Nose-frequenzy (Omega)   =  0.10E-29 period in steps =****** mass=  -0.412E-27a.u.
   SCALEE = 1.0000    scale energy and forces
   NPACO  =    256;   APACO  = 16.0  distance and # of slots for P.C.
   PSTRESS=    0.0 pullay stress

  Mass of Ions in am
   POMASS =  22.99208.98 32.07
  Ionic Valenz
   ZVAL   =   1.00  5.00  6.00
  Atomic Wigner-Seitz radii
  virtual crystal weights
   VCA    =   1.00  1.00  1.00
   NELECT =     128.0000    total number of electrons
   NUPDOWN=      -1.0000    fix difference up-down

 DOS related values:
   EMIN   =  10.00;   EMAX   =-10.00  energy-range for DOS
   EFERMI =   0.00
   ISMEAR =     0;   SIGMA  =   0.05  broadening in eV -4-tet -1-fermi 0-gaus

 Electronic relaxation 2 (details)
   IALGO  =     38    algorithm
   LDIAG  =      T    sub-space diagonalisation (order eigenvalues)
   LSUBROT=      F    optimize rotation matrix (better conditioning)
   TURBO    =      0    0=normal 1=particle mesh
   IRESTART =      0    0=no restart 2=restart with 2 vectors
   NREBOOT  =      0    no. of reboots
   NMIN     =      0    reboot dimension
   EREF     =   0.00    reference energy to select bands
   IMIX   =      4    mixing-type and parameters
     AMIX     =   0.40;   BMIX     =  1.00
     AMIX_MAG =   1.60;   BMIX_MAG =  1.00
     AMIN     =   0.10
     WC   =   100.;   INIMIX=   1;  MIXPRE=   1;  MAXMIX= -45

 Intra band minimization:
   WEIMIN = 0.0010     energy-eigenvalue tresh-hold
   EBREAK =  0.30E-06  absolut break condition
   DEPER  =   0.30     relativ break condition

   TIME   =   0.40     timestep for ELM

  volume/ion in A,a.u.               =      33.95       229.12
  Fermi-wavevector in a.u.,A,eV,Ry     =   0.860060  1.625278 10.064282  0.739704
  Thomas-Fermi vector in A             =   1.977509

 Write flags
   LWAVE        =      F    write WAVECAR
[...]
 d Force = 0.1581016E+01[ 0.158E+01, 0.158E+01]  d Ewald  = 0.7889104E+00 0.792E+00

[...]

 d Force = 0.1432669E-01[-0.576E-02, 0.344E-01]  d Energy = 0.1219947E-01 0.213E-02
 d Force =-0.1882632E+02[-0.191E+02,-0.185E+02]  d Ewald  =-0.2129518E+02 0.247E+01

[...]

 d Force = 0.1571549E-01[ 0.950E-02, 0.219E-01]  d Energy =-0.2136755E-02 0.179E-01
 d Force =-0.1364108E+02[-0.138E+02,-0.135E+02]  d Ewald  =-0.3234340E+02 0.187E+02

[...]

 d Force =-0.6249433E-02[-0.796E-02,-0.454E-02]  d Energy = 0.7446658E-02-0.137E-01
 d Force = 0.6563947E+01[ 0.653E+01, 0.660E+01]  d Ewald  = 0.1557770E+02-0.901E+01

[...]

 d Force =-0.8749384E-03[-0.205E-01, 0.188E-01]  d Energy =-0.2453490E-02 0.158E-02
 d Force =-0.2204146E+02[-0.225E+02,-0.215E+02]  d Ewald  =-0.2656551E+02 0.452E+01

[...]

 d Force = 0.5247029E-02[ 0.344E-02, 0.706E-02]  d Energy = 0.3038654E-02 0.221E-02
 d Force =-0.1590360E+01[-0.161E+01,-0.158E+01]  d Ewald  = 0.3663236E+01-0.525E+01

[...]

 d Force =-0.8682452E-03[-0.972E-03,-0.764E-03]  d Energy = 0.8653702E-03-0.173E-02
 d Force =-0.2770620E+01[-0.278E+01,-0.276E+01]  d Ewald  =-0.4890486E+01 0.212E+01

[...]

 Conjugate gradient step on ions:
 trial-energy change:   -0.005148  1 .order   -0.005100   -0.007929   -0.002271
  (g-gl).g = 0.156E-02      g.g   = 0.205E-02  gl.gl    = 0.176E-02
 g(Force)  = 0.114E-02   g(Stress)= 0.908E-03 ortho     =-0.184E-03
 gamma     =   0.88212
 trial     =   4.20405
 opt step  =   5.89122  (harmonic =   5.89122) maximal distance =0.01255547
 next E    =  -109.124672   (d E  =  -0.00556)

[...]

 d Force = 0.3008825E-02[ 0.210E-02, 0.392E-02]  d Energy = 0.3622777E-02-0.614E-03
 d Force = 0.6750225E+00[ 0.668E+00, 0.682E+00]  d Ewald  = 0.1241300E+01-0.566E+00

 Conjugate gradient step on ions:
 trial-energy change:   -0.003623  1 .order   -0.003657   -0.004664   -0.002650
  (g-gl).g = 0.562E-03      g.g   = 0.989E-03  gl.gl    = 0.205E-02
 g(Force)  = 0.738E-03   g(Stress)= 0.251E-03 ortho     = 0.138E-03
 gamma     =   0.27442
 trial     =   4.54148
 opt step  =  10.51736  (harmonic =  10.51736) maximal distance =0.01365399
 next E    =  -109.130184   (d E  =  -0.00540)

[...]

 d Force = 0.8086412E-03[-0.114E-02, 0.276E-02]  d Energy = 0.1834624E-03 0.625E-03
 d Force = 0.8677875E+00[ 0.856E+00, 0.880E+00]  d Ewald  = 0.1609602E+01-0.742E+00

[...]

 eigenvalue-minimisations  :  1316
 total energy-change (2. order) :-0.1652963E-03  (-0.3112148E-03)
 number of electron     128.0001051 magnetization
 augmentation part      -24.3339561 magnetization

[...]

 eigenvalues of (default mixing * dielectric matrix)
  average eigenvalue GAMMA=   0.7010
  0.7010

[...]

 d Force = 0.2159045E-03[ 0.126E-04, 0.419E-03]  d Energy = 0.5299594E-03-0.314E-03
 d Force =-0.3138885E+00[-0.315E+00,-0.312E+00]  d Ewald  =-0.5853600E+00 0.271E+00

[...]

 Broyden mixing:
  rms(total) = 0.56397E-02    rms(broyden)= 0.56376E-02
  rms(prec ) = 0.65704E-02
  weight for this iteration     100.00

[...]

--------------------------------------- Iteration     87(   2)  ---------------------------------------

 eigenvalue-minimisations  :  1302
 total energy-change (2. order) : 0.7352010E-06  (-0.6265202E-04)
 number of electron     128.0001049 magnetization
 augmentation part      -24.3333745 magnetization

 Free energy of the ion-electron system (eV)
  alpha Z        PSCENC =        68.09495337
  Ewald energy   TEWEN  =     -4199.71826327
  -Hartree energ DENC   =     -1105.38673510
  -exchange      EXHF   =         0.00000000
  -V(xc)+E(xc)   XCENC  =      -849.60574613
  PAW double counting   =      8867.10559464    -7738.30308079
  entropy T*S    EENTRO =        -0.00000000
  eigenvalues    EBANDS =      -253.86664421
  atomic energy  EATOM  =      5102.55081770
  Solvation  Ediel_sol  =         0.00000000
  free energy    TOTEN  =      -109.12910380 eV

  energy without entropy =     -109.12910380  energy(sigma->0) =     -109.12910380

 average (electrostatic) potential at core
  the test charge radii are     1.1212  1.4024  0.9698
  (the norm of the test charge is              1.0000)
       1 -39.7313       2 -39.7313       3 -39.4445       4 -39.4445       5 -63.9001
       6 -63.9001       7 -63.9197       8 -63.9197       9 -63.7753      10 -63.7753
      11 -63.9895      12 -63.9895      13 -87.3661      14 -87.3661      15 -87.1078
      16 -87.1078      17 -87.2929      18 -87.2929      19 -87.3845      20 -87.3845
      21 -87.3793      22 -87.3793      23 -87.4723      24 -87.4723      25 -87.4594
      26 -87.4594

 E-fermi :   3.5131     XC(G=0):  -8.6726     alpha+bet : -9.1189

[...]

 k-point     6 :       0.4000   -0.2500    0.2500
  band No.  band energies     occupation
      1      -9.3847      2.00000
      2      -9.3429      2.00000
      3      -8.8998      2.00000
      4      -8.8763      2.00000
      5      -8.8377      2.00000
      6      -8.5854      2.00000
      7      -8.4927      2.00000
      8      -8.4272      2.00000
      9      -8.3811      2.00000
     10      -8.3342      2.00000
     11      -8.3080      2.00000
     12      -8.2851      2.00000
     13      -8.1031      2.00000
     14      -8.0217      2.00000
     15      -7.1383      2.00000
     16      -6.8404      2.00000
     17      -6.7412      2.00000
     18      -6.6889      2.00000
     19      -6.4730      2.00000
     20      -6.4542      2.00000
     21      -6.1099      2.00000
     22      -6.0612      2.00000
     23      -1.2949      2.00000
     24      -1.2266      2.00000
     25      -1.1122      2.00000
     26      -1.0731      2.00000
     27      -0.7971      2.00000
     28      -0.7278      2.00000
     29      -0.6018      2.00000
     30      -0.4155      2.00000
     31      -0.3851      2.00000
     32      -0.3124      2.00000
     33      -0.1141      2.00000
     34       0.0887      2.00000
     35       0.1633      2.00000
     36       0.1964      2.00000
     37       0.2519      2.00000
     38       0.2588      2.00000
     39       0.3541      2.00000
     40       0.4781      2.00000
     41       0.5234      2.00000
     42       0.7145      2.00000
     43       0.8041      2.00000
     44       1.0185      2.00000
     45       1.0533      2.00000
     46       1.1833      2.00000
     47       1.5646      2.00000
     48       1.6954      2.00000
     49       1.7338      2.00000
     50       1.7771      2.00000
     51       1.8149      2.00000
     52       1.8424      2.00000
     53       1.8821      2.00000
     54       1.9528      2.00000
     55       2.0932      2.00000
     56       2.1434      2.00000
     57       2.1519      2.00000
     58       2.1984      2.00000
     59       2.2736      2.00000
     60       2.3789      2.00000
[...]
     70       6.0085      0.00000
     71       6.1468      0.00000
     72       6.2442      0.00000
     73       6.3714      0.00000
     74       6.4322      0.00000
     75       6.4859      0.00000
     76       6.5495      0.00000
     77       6.7289      0.00000
     78       6.8708      0.00000
     79       6.9016      0.00000
     80       7.0302      0.00000
     81       7.1633      0.00000
     82       7.1866      0.00000
     83       7.3259      0.00000
     84       7.4271      0.00000

 soft charge-density along one line, spin component           1
         0         1         2         3         4         5         6         7         8         9
 total charge-density along one line

------------------------ aborting loop because EDIFF is reached ----------------------------------------

[...]

  FORCE on cell =-STRESS in cart. coord.  units (eV):
  Direction    XX          YY          ZZ          XY          YZ          ZX
  Alpha Z    68.09495    68.09495    68.09495
  Ewald   -1019.18208 -1552.61154 -1627.93978     0.00000  -384.80457    -0.00000
  Hartree   648.47036   255.79399   201.17404    -0.00000  -296.41302    -0.00000
  E(xc)    -480.76243  -480.28621  -480.65336    -0.00000    -0.31730     0.00000
  Local   -1813.68494  -889.27635  -758.29238    -0.00000   679.33002     0.00000
  n-local  1620.86917  1613.94308  1616.17446    -0.16081     0.67440     0.34109
  augment  -459.42331  -459.29802  -458.99815     0.00000    -0.27426     0.00000
  Kinetic  1435.62822  1443.85934  1440.06202     0.09151     2.05466     0.62927
  Fock        0.00000     0.00000     0.00000     0.00000     0.00000     0.00000
  Total       0.00994     0.21924    -0.37820     0.00000     0.24991     0.00000
  in kB       0.02261     0.49842    -0.85980     0.00000     0.56815     0.00000

 VOLUME and BASIS-vectors are now :
  energy-cutoff  :      300.00
  volume of cell :      704.75
      direct lattice vectors                 reciprocal lattice vectors
     4.053090339  0.000000000  0.000000000     0.246725317  0.000000000  0.000000000
     0.000000000 13.384383464 -0.658781678     0.000000000  0.074627374 -0.001758721
     0.000000000  0.305807810 12.976266627     0.000000000  0.003788697  0.076974481

  length of vectors
     4.053090339 13.400586331 12.979869567     0.246725317  0.074648094  0.077067665

 FORCES acting on ions
    electron-ion (+dipol)            ewald-force                    non-local-force                 convergence-correction
   -.760E-13 -.365E+01 -.584E+00   0.162E-14 0.360E+01 0.868E+00   0.000E+00 0.540E-01 -.291E+00   -.573E-16 0.773E-03 -.125E-02
   -.709E-13 0.365E+01 0.584E+00   -.166E-14 -.360E+01 -.868E+00   0.000E+00 -.540E-01 0.291E+00   0.140E-15 -.773E-03 0.125E-02
   -.980E-12 0.441E+01 0.281E+01   -.151E-15 -.431E+01 -.258E+01   0.000E+00 -.762E-01 -.267E+00   -.277E-16 0.648E-03 0.858E-03
   -.979E-12 -.441E+01 -.281E+01   -.712E-15 0.431E+01 0.258E+01   0.000E+00 0.762E-01 0.267E+00   -.167E-16 -.648E-03 -.858E-03
   0.200E-11 0.339E+02 0.277E+02   0.195E-13 -.331E+02 -.253E+02   -.347E-17 -.761E+00 -.235E+01   -.100E-14 0.409E-03 0.415E-02
   0.199E-11 -.339E+02 -.277E+02   -.164E-13 0.331E+02 0.253E+02   0.347E-17 0.761E+00 0.235E+01   -.945E-16 -.409E-03 -.415E-02
   0.839E-12 -.484E+01 -.362E+02   0.112E-13 0.628E+01 0.357E+02   0.000E+00 -.147E+01 0.512E+00   -.666E-15 0.127E-01 -.261E-02
   0.815E-12 0.484E+01 0.362E+02   -.108E-13 -.628E+01 -.357E+02   0.000E+00 0.147E+01 -.512E+00   -.534E-15 -.127E-01 0.261E-02
   0.174E-11 0.487E+02 0.191E+02   0.494E-14 -.451E+02 -.173E+02   0.000E+00 -.359E+01 -.184E+01   0.137E-14 0.978E-02 -.267E-02
   0.176E-11 -.487E+02 -.191E+02   -.742E-14 0.451E+02 0.173E+02   0.000E+00 0.359E+01 0.184E+01   -.305E-14 -.978E-02 0.267E-02
   -.176E-12 0.775E+01 -.171E+02   -.894E-14 -.744E+01 0.165E+02   0.000E+00 -.327E+00 0.647E+00   0.119E-14 -.619E-02 0.339E-02
   -.169E-12 -.775E+01 0.171E+02   0.376E-14 0.744E+01 -.165E+02   0.000E+00 0.327E+00 -.647E+00   -.304E-14 0.619E-02 -.339E-02
   0.306E-12 0.543E+02 0.706E+02   0.106E-13 -.556E+02 -.730E+02   0.000E+00 0.122E+01 0.243E+01   -.575E-15 -.155E-02 -.572E-02
   0.290E-12 -.543E+02 -.706E+02   -.938E-14 0.556E+02 0.730E+02   0.000E+00 -.122E+01 -.243E+01   0.520E-14 0.155E-02 0.572E-02
   0.243E-12 0.750E+02 0.309E+02   -.537E-15 -.795E+02 -.306E+02   0.000E+00 0.441E+01 -.292E+00   -.111E-14 0.135E-01 -.360E-02
   0.224E-12 -.750E+02 -.309E+02   0.548E-14 0.795E+02 0.306E+02   0.000E+00 -.441E+01 0.292E+00   0.626E-14 -.135E-01 0.360E-02
   -.414E-12 -.493E+02 -.871E+02   0.656E-15 0.508E+02 0.897E+02   0.000E+00 -.154E+01 -.263E+01   0.359E-14 -.756E-02 0.103E-01
   -.401E-12 0.493E+02 0.871E+02   0.517E-14 -.508E+02 -.897E+02   0.000E+00 0.154E+01 0.263E+01   0.396E-14 0.756E-02 -.103E-01
   0.269E-14 0.909E+02 0.786E+02   0.537E-15 -.932E+02 -.807E+02   0.000E+00 0.225E+01 0.219E+01   0.446E-14 0.130E-01 -.142E-01
   0.149E-13 -.909E+02 -.786E+02   0.193E-14 0.932E+02 0.807E+02   0.000E+00 -.225E+01 -.219E+01   0.195E-15 -.130E-01 0.142E-01
   -.951E-12 -.275E+02 -.809E+02   0.325E-14 0.292E+02 0.835E+02   0.000E+00 -.171E+01 -.259E+01   0.114E-14 -.176E-01 0.419E-02
   -.969E-12 0.275E+02 0.809E+02   0.293E-14 -.292E+02 -.835E+02   0.000E+00 0.171E+01 0.259E+01   0.869E-14 0.176E-01 -.419E-02
   0.230E-11 0.795E+02 0.111E+02   -.538E-14 -.818E+02 -.124E+02   0.000E+00 0.227E+01 0.130E+01   -.148E-15 -.101E-03 -.447E-02
   0.232E-11 -.795E+02 -.111E+02   0.987E-14 0.818E+02 0.124E+02   0.000E+00 -.227E+01 -.130E+01   0.194E-14 0.101E-03 0.447E-02
   0.307E-11 0.202E+02 0.169E+01   0.963E-14 -.208E+02 -.229E+01   -.108E-18 0.550E+00 0.615E+00   -.182E-15 0.173E-01 -.444E-02
   0.305E-11 -.202E+02 -.169E+01   -.938E-14 0.208E+02 0.229E+01   0.108E-18 -.550E+00 -.615E+00   -.249E-15 -.173E-01 0.444E-02
   0.158E-10 -.491E-09 -.452E-09   0.203E-13 -.117E-12 0.355E-14   0.000E+00 0.000E+00 0.000E+00   0.274E-13 0.272E-11 0.239E-11

 POSITION                                       TOTAL-FORCE (eV/Angst)
      1.01327      7.78862      9.74935         0.000000      0.003733     -0.008202
      3.03982      5.90158      2.56813         0.000000     -0.003733      0.008202
      3.03982     11.83030      7.27461         0.000000      0.018289     -0.036676
      1.01327      1.85989      5.04288         0.000000     -0.018289      0.036676
      1.01327     12.97995     10.51763         0.000000      0.010883     -0.015141
      3.03982      0.71024      1.79985         0.000000     -0.010883      0.015141
      1.01327     11.25266      3.30686         0.000000     -0.014074     -0.013348
      3.03982      2.43753      9.01063         0.000000      0.014074      0.013348
      3.03982      9.81536     -0.22821         0.000000      0.027685     -0.021361
      1.01327      3.87483     12.54569         0.000000     -0.027685      0.021361
      3.03982      8.38268      5.33245         0.000000     -0.031105      0.024988
      1.01327      5.30751      6.98504         0.000000      0.031105     -0.024988
      1.01327      6.53991      4.48519         0.000000     -0.015317      0.021976
      3.03982      7.15028      7.83229         0.000000      0.015317     -0.021976
      1.01327      8.13443     -0.58958         0.000000     -0.017327     -0.003647
      3.03982      5.24995     -0.06920         0.000000      0.017327      0.003647
      3.03982     -0.07697      4.40004         0.000000     -0.019811     -0.008112
      1.01327      0.38278      8.57623         0.000000      0.019811      0.008112
      3.03982     11.09216     10.09397         0.000000     -0.002373      0.020445
      1.01327      2.59803      2.22351         0.000000      0.002373     -0.020445
      1.01327     10.29474      5.92557         0.000000     -0.035583     -0.000528
      3.03982      3.39545      6.39192         0.000000      0.035583      0.000528
      3.03982      9.43338      2.66985         0.000000     -0.017218     -0.008203
      1.01327      4.25682      9.64764         0.000000      0.017218      0.008203
      1.01327     12.08131      0.50507         0.000000      0.028384      0.011840
      3.03982      1.60888     11.81241         0.000000     -0.028384     -0.011840
    total drift:                                0.000000     -0.000000     -0.000000

  FREE ENERGIE OF THE ION-ELECTRON SYSTEM (eV)
  free  energy   TOTEN  =      -109.12910380 eV

  energy  without entropy=     -109.12910380  energy(sigma->0) =     -109.12910380

 d Force =-0.6528902E-04[-0.137E-03, 0.609E-05]  d Energy =-0.1641442E-04-0.489E-04
 d Force =-0.1528105E+00[-0.153E+00,-0.152E+00]  d Ewald  =-0.2840733E+00 0.131E+00

 reached required accuracy - stopping structural energy minimisation

 total charge

# of ion       s       p       d       tot
    1        0.047   0.030   0.000   0.077
    2        0.047   0.030   0.000   0.077
    3        0.048   0.034   0.000   0.082
    4        0.048   0.034   0.000   0.082
    5        1.838   1.430   0.171   3.440
    6        1.838   1.430   0.171   3.440
    7        1.846   1.405   0.174   3.425
    8        1.846   1.405   0.174   3.425
    9        1.825   1.479   0.164   3.467
   10        1.825   1.479   0.164   3.467
   11        1.848   1.397   0.178   3.423
   12        1.848   1.397   0.178   3.423
   13        1.342   2.357   0.000   3.699
   14        1.342   2.357   0.000   3.699
   15        1.356   2.329   0.000   3.685
   16        1.356   2.329   0.000   3.685
   17        1.345   2.353   0.000   3.698
   18        1.345   2.353   0.000   3.698
   19        1.351   2.331   0.000   3.682
   20        1.351   2.331   0.000   3.682
   21        1.344   2.355   0.000   3.699
   22        1.344   2.355   0.000   3.699
   23        1.353   2.335   0.000   3.688
   24        1.353   2.335   0.000   3.688
   25        1.351   2.334   0.000   3.684
   26        1.351   2.334   0.000   3.684
tot         33.789  44.335   1.374  79.498