 vasp.5.4.4.18Apr17-6-g9f103f2a35 (build Oct 27 2022 13:04:57) complex

 executed on             LinuxIFC date 2024.07.04  04:02:01

 INCAR:
 POTCAR:    PAW_PBE Li 17Jan2003
 POTCAR:    PAW_PBE In 08Apr2002
 POTCAR:    PAW_PBE Se 06Sep2000

 POTCAR:    PAW_PBE Li 17Jan2003
   VRHFIN =Li: s1p0

   TITEL  = PAW_PBE Li 17Jan2003
   POMASS =    7.010; ZVAL   =    1.000    mass and valenz
   ENMAX  =  140.000; ENMIN  =  100.000 eV

 POTCAR:    PAW_PBE In 08Apr2002
   VRHFIN =In: s2p1

   TITEL  = PAW_PBE In 08Apr2002
   POMASS =  114.820; ZVAL   =    3.000    mass and valenz
   ENMAX  =   95.934; ENMIN  =   71.951 eV

 POTCAR:    PAW_PBE Se 06Sep2000
   VRHFIN =Se: s2p4

   TITEL  = PAW_PBE Se 06Sep2000
   POMASS =   78.960; ZVAL   =    6.000    mass and valenz
   ENMAX  =  211.555; ENMIN  =  158.666 eV

 Optimization of the real space projectors (new method)

 maximal supplied QI-value         = 18.33
 optimisation between [QCUT,QGAM] = [  8.80, 17.60] = [ 21.68, 86.71] Ry
 Optimized for a Real-space Cutoff    1.15 Angstroem

   l    n(q)    QCUT    max X(q) W(low)/X(q) W(high)/X(q)  e(spline)
   0      6     8.799    33.825    0.11E-02    0.11E-02    0.82E-07
   0      6     8.799     8.944    0.75E-03    0.85E-03    0.59E-07
   1      5     8.799     4.214    0.92E-03    0.27E-03    0.41E-07
 Optimization of the real space projectors (new method)

[...]

   l    n(q)    QCUT    max X(q) W(low)/X(q) W(high)/X(q)  e(spline)
   0      9     8.829   106.980    0.60E-03    0.42E-03    0.23E-06
   0      9     8.829    81.086    0.66E-03    0.46E-03    0.26E-06
   1      8     8.829    53.097    0.11E-02    0.11E-02    0.13E-06
   1      8     8.829    32.621    0.11E-02    0.10E-02    0.12E-06
   2      8     8.829     8.820    0.59E-03    0.37E-03    0.10E-06
 Optimization of the real space projectors (new method)

 maximal supplied QI-value         = 17.95
 optimisation between [QCUT,QGAM] = [  8.80, 17.59] = [ 21.67, 86.68] Ry
 Optimized for a Real-space Cutoff    1.19 Angstroem

   l    n(q)    QCUT    max X(q) W(low)/X(q) W(high)/X(q)  e(spline)
   0      6     8.797   133.320    0.14E-02    0.11E-02    0.95E-07
   0      6     8.797   111.601    0.15E-02    0.12E-02    0.10E-06
   1      6     8.797    47.222    0.19E-02    0.96E-03    0.11E-06
   1      6     8.797    33.775    0.19E-02    0.99E-03    0.11E-06
   2      5     8.797     3.720    0.16E-02    0.14E-02    0.40E-07
  PAW_PBE Li 17Jan2003                  :
  PAW_PBE In 08Apr2002                  :
  PAW_PBE Se 06Sep2000                  :

 POSCAR: Li4 In4 Se8
  positions in direct lattice
  velocities in cartesian coordinates
 exchange correlation table for  LEXCH =        8
   RHO(1)=    0.500       N(1)  =     2000
   RHO(2)=  100.500       N(2)  =     4000

 ion  position               nearest neighbor table
   1  0.619  0.586  0.123-  12 2.60  11 2.61  15 2.62  16 2.64
   2  0.119  0.914  0.623-   9 2.60  10 2.61  13 2.62  14 2.64
   3  0.619  0.086  0.377-  11 2.60  12 2.61  14 2.62  13 2.64
   4  0.119  0.414  0.877-  10 2.60   9 2.61  16 2.62  15 2.64
   5  0.622  0.574  0.626-  10 2.62  13 2.63  16 2.63  12 2.63
   6  0.122  0.426  0.374-  12 2.62  14 2.63  15 2.63  10 2.63
   7  0.122  0.926  0.126-  11 2.62  15 2.63  14 2.63   9 2.63
   8  0.622  0.074  0.874-   9 2.62  16 2.63  13 2.63  11 2.63
   9  1.000  0.074  0.870-   2 2.60   4 2.61   8 2.62   7 2.63
  10  1.000  0.574  0.630-   4 2.60   2 2.61   5 2.62   6 2.63
  11  0.500  0.926  0.130-   3 2.60   1 2.61   7 2.62   8 2.63
  12  0.500  0.426  0.370-   1 2.60   3 2.61   6 2.62   5 2.63
  13  0.495  0.915  0.624-   2 2.62   5 2.63   8 2.63   3 2.64
  14  0.995  0.085  0.376-   3 2.62   6 2.63   7 2.63   2 2.64
  15  0.995  0.585  0.124-   1 2.62   7 2.63   6 2.63   4 2.64
  16  0.495  0.415  0.876-   4 2.62   8 2.63   5 2.63   1 2.64

  LATTYP: Found a simple orthorhombic cell.
 ALAT       =     6.9546311144
 B/A-ratio  =     1.0454325761
 C/A-ratio  =     1.2628997976

  Lattice vectors:

 A1 = (   6.9546311144,   0.0000000000,   0.0000000000)
 A2 = (   0.0000000000,   7.2705979218,   0.0000000000)
 A3 = (   0.0000000000,   0.0000000000,   8.7830022264)

Analysis of symmetry for initial positions (statically):
 Subroutine PRICEL returns:
 Original cell was already a primitive cell.

 Routine SETGRP: Setting up the symmetry group for a
 simple orthorhombic supercell.

 Subroutine GETGRP returns: Found  4 space group operations
 (whereof  1 operations were pure point group operations)
 out of a pool of  8 trial point group operations.

The static configuration has the point symmetry C_1 .
 The point group associated with its full space group is C_2v.

Analysis of symmetry for dynamics (positions and initial velocities):
 Subroutine PRICEL returns:
 Original cell was already a primitive cell.

 Routine SETGRP: Setting up the symmetry group for a
 simple orthorhombic supercell.

 Subroutine GETGRP returns: Found  4 space group operations
 (whereof  1 operations were pure point group operations)
 out of a pool of  8 trial point group operations.

The dynamic configuration has the point symmetry C_1 .
 The point group associated with its full space group is C_2v.

 Subroutine INISYM returns: Found  4 space group operations
 (whereof  1 operations are pure point group operations),
 and found     1 'primitive' translations

 KPOINTS: pymatgen with grid density = 807 / numbe

Automatic generation of k-mesh.
Space group operators:
 irot       det(A)        alpha          n_x          n_y          n_z        tau_x        tau_y        tau_z
    1     1.000000     0.000000     1.000000     0.000000     0.000000     0.000000     0.000000     0.000000
    2    -1.000000   180.000000     0.000000     0.000000     1.000000     0.000000     0.500000     0.500000
    3    -1.000000   180.000000     0.000000     1.000000     0.000000     0.500000     0.500000     0.500000
    4     1.000000   180.000000     1.000000     0.000000     0.000000     0.500000     0.000000     0.000000

 Subroutine IBZKPT returns following result:

 Found      8 irreducible k-points:

 Following reciprocal coordinates:
            Coordinates               Weight
  0.000000  0.000000  0.000000      1.000000
  0.333333  0.000000  0.000000      2.000000
  0.000000  0.333333  0.000000      2.000000
  0.333333  0.333333  0.000000      4.000000
  0.000000  0.000000  0.333333      2.000000
  0.333333  0.000000  0.333333      4.000000
  0.000000  0.333333  0.333333      4.000000
  0.333333  0.333333  0.333333      8.000000

 Following cartesian coordinates:
            Coordinates               Weight
  0.000000  0.000000  0.000000      1.000000
  0.047930  0.000000  0.000000      2.000000
  0.000000  0.045847  0.000000      2.000000
  0.047930  0.045847  0.000000      4.000000
  0.000000  0.000000  0.037952      2.000000
  0.047930  0.000000  0.037952      4.000000
  0.000000  0.045847  0.037952      4.000000
  0.047930  0.045847  0.037952      8.000000

 SYSTEM =  CIS
 POSCAR =  Li4 In4 Se8

 Startparameter for this run:
   NWRITE =      2    write-flag & timer
   PREC   = medium    normal or accurate (medium, high low for compatibility)
   ISTART =      0    job   : 0-new  1-cont  2-samecut
   ICHARG =      2    charge: 1-file 2-atom 10-const
   ISPIN  =      1    spin polarized calculation?
   LNONCOLLINEAR =      F non collinear calculations
   LSORBIT =      F    spin-orbit coupling
   INIWAV =      1    electr: 0-lowe 1-rand  2-diag
   LASPH  =      T    aspherical Exc in radial PAW
   METAGGA=      F    non-selfconsistent MetaGGA calc.

 Electronic Relaxation 1
   ENCUT  =  300.0 eV  22.05 Ry    4.70 a.u.   9.82 10.27 12.40*2*pi/ulx,y,z
   ENINI  =  300.0     initial cutoff
   ENAUG  =  446.8 eV  augmentation charge cutoff
   NELM   =     60;   NELMIN=  2; NELMDL= -5     # of ELM steps
   EDIFF  = 0.1E-03   stopping-criterion for ELM
   LREAL  =      T    real-space projection
   NLSPLINE    = F    spline interpolate recip. space projectors
   LCOMPAT=      F    compatible to vasp.4.4
   GGA_COMPAT  = T    GGA compatible to vasp.4.4-vasp.4.6
   LMAXPAW     = -100 max onsite density
   LMAXMIX     =    4 max onsite mixed and CHGCAR
   VOSKOWN=      0    Vosko Wilk Nusair interpolation
   ROPT   =   -0.00200  -0.00200  -0.00200
 Ionic relaxation
   EDIFFG = -.5E-01   stopping-criterion for IOM
   NSW    =     99    number of steps for IOM
   NBLOCK =      1;   KBLOCK =     99    inner block; outer block
   IBRION =      2    ionic relax: 0-MD 1-quasi-New 2-CG
   NFREE  =      1    steps in history (QN), initial steepest desc. (CG)
   ISIF   =      3    stress and relaxation
   IWAVPR =     11    prediction:  0-non 1-charg 2-wave 3-comb
   ISYM   =      2    0-nonsym 1-usesym 2-fastsym
   LCORR  =      T    Harris-Foulkes like correction to forces

   POTIM  = 0.1000    time-step for ionic-motion
   TEIN   =    0.0    initial temperature
   TEBEG  =    0.0;   TEEND  =   0.0 temperature during run
   SMASS  =  -3.00    Nose mass-parameter (am)
   estimated Nose-frequenzy (Omega)   =  0.10E-29 period in steps =****** mass=  -0.111E-26a.u.
   SCALEE = 1.0000    scale energy and forces
   NPACO  =    256;   APACO  = 16.0  distance and # of slots for P.C.
   PSTRESS=    0.0 pullay stress

  Mass of Ions in am
   POMASS =   7.01114.82 78.96
  Ionic Valenz
   ZVAL   =   1.00  3.00  6.00
  Atomic Wigner-Seitz radii
  virtual crystal weights
   VCA    =   1.00  1.00  1.00
   NELECT =      64.0000    total number of electrons
   NUPDOWN=      -1.0000    fix difference up-down

 DOS related values:
   EMIN   =  10.00;   EMAX   =-10.00  energy-range for DOS
   EFERMI =   0.00
   ISMEAR =     0;   SIGMA  =   0.05  broadening in eV -4-tet -1-fermi 0-gaus

 Electronic relaxation 2 (details)
   IALGO  =     38    algorithm
   LDIAG  =      T    sub-space diagonalisation (order eigenvalues)
   LSUBROT=      F    optimize rotation matrix (better conditioning)
   TURBO    =      0    0=normal 1=particle mesh
   IRESTART =      0    0=no restart 2=restart with 2 vectors
   NREBOOT  =      0    no. of reboots
   NMIN     =      0    reboot dimension
   EREF     =   0.00    reference energy to select bands
   IMIX   =      4    mixing-type and parameters
     AMIX     =   0.40;   BMIX     =  1.00
     AMIX_MAG =   1.60;   BMIX_MAG =  1.00
     AMIN     =   0.10
     WC   =   100.;   INIMIX=   1;  MIXPRE=   1;  MAXMIX= -45

 Intra band minimization:
   WEIMIN = 0.0010     energy-eigenvalue tresh-hold
   EBREAK =  0.60E-06  absolut break condition
   DEPER  =   0.30     relativ break condition

   TIME   =   0.40     timestep for ELM

  volume/ion in A,a.u.               =      27.76       187.31
  Fermi-wavevector in a.u.,A,eV,Ry     =   0.858300  1.621952 10.023123  0.736679
  Thomas-Fermi vector in A             =   1.975484

 Write flags
   LWAVE        =      F    write WAVECAR
   LDOWNSAMPLE  =      F    k-point downsampling of WAVECAR
   LCHARG       =      F    write CHGCAR
   LVTOT        =      F    write LOCPOT, total local potential
   LVHAR        =      F    write LOCPOT, Hartree potential only
   LELF         =      F    write electronic localiz. function (ELF)
[...]
   0.470E-01 0.791E+00 -.672E+00   0.234E-02 -.649E+00 0.596E+00   -.477E-01 -.972E-01 0.799E-01   -.428E-04 -.117E-03 -.982E-04
   0.470E-01 -.791E+00 -.672E+00   0.234E-02 0.649E+00 0.596E+00   -.477E-01 0.972E-01 0.799E-01   -.428E-04 0.117E-03 -.982E-04
   -.206E+00 0.131E+01 -.481E+00   0.242E+00 -.105E+01 0.480E+00   -.132E+00 -.261E+00 -.245E-01   0.497E-04 0.521E-03 -.668E-04
   -.206E+00 -.131E+01 0.481E+00   0.242E+00 0.105E+01 -.480E+00   -.132E+00 0.261E+00 0.245E-01   0.497E-04 -.521E-03 0.668E-04
   -.206E+00 -.131E+01 -.481E+00   0.242E+00 0.105E+01 0.480E+00   -.132E+00 0.261E+00 -.245E-01   0.497E-04 -.521E-03 -.668E-04
   -.206E+00 0.131E+01 0.481E+00   0.242E+00 -.105E+01 -.480E+00   -.132E+00 -.261E+00 0.245E-01   0.497E-04 0.521E-03 0.668E-04
   -.871E+01 -.556E+01 0.124E+02   0.102E+02 0.652E+01 -.143E+02   -.133E+01 -.826E+00 0.188E+01   0.619E-02 0.460E-02 -.886E-02
   -.871E+01 -.556E+01 -.124E+02   0.102E+02 0.652E+01 0.143E+02   -.133E+01 -.826E+00 -.188E+01   0.619E-02 0.460E-02 0.886E-02
   -.871E+01 0.556E+01 -.124E+02   0.102E+02 -.652E+01 0.143E+02   -.133E+01 0.826E+00 -.188E+01   0.619E-02 -.460E-02 0.886E-02
   -.871E+01 0.556E+01 0.124E+02   0.102E+02 -.652E+01 -.143E+02   -.133E+01 0.826E+00 0.188E+01   0.619E-02 -.460E-02 -.886E-02
   0.903E+01 -.849E+01 0.127E+02   -.105E+02 0.949E+01 -.145E+02   0.135E+01 -.914E+00 0.182E+01   -.647E-02 0.465E-02 -.804E-02
   0.903E+01 0.849E+01 -.127E+02   -.105E+02 -.949E+01 0.145E+02   0.135E+01 0.914E+00 -.182E+01   -.647E-02 -.465E-02 0.804E-02
   0.903E+01 0.849E+01 0.127E+02   -.105E+02 -.949E+01 -.145E+02   0.135E+01 0.914E+00 0.182E+01   -.647E-02 -.465E-02 -.804E-02
   0.903E+01 -.849E+01 -.127E+02   -.105E+02 0.949E+01 0.145E+02   0.135E+01 -.914E+00 -.182E+01   -.647E-02 0.465E-02 0.804E-02
   0.654E+00 -.239E-10 0.857E-04   0.178E-14 0.533E-14 0.178E-14   -.622E+00 -.222E-15 0.222E-15   -.111E-02 0.115E-13 -.385E-13

 POSITION                                       TOTAL-FORCE (eV/Angst)
      4.30394      4.25902      1.07682        -0.000309      0.045055     -0.004087
      0.82663      6.64688      5.46832        -0.000309     -0.045055     -0.004087
      4.30394      0.62372      3.31468        -0.000309      0.045055      0.004087
      0.82663      3.01158      7.70618        -0.000309     -0.045055      0.004087
      4.32883      4.17039      5.50183        -0.097519     -0.002675     -0.026208
      0.85151      3.10020      3.28117        -0.097519      0.002675      0.026208
      0.85151      6.73550      1.11033        -0.097519      0.002675     -0.026208
      4.32883      0.53510      7.67267        -0.097519     -0.002675      0.026208
      6.95227      0.53805      7.64506         0.173986      0.134906     -0.018216
      6.95227      4.17335      5.52944         0.173986      0.134906      0.018216
      3.47496      6.73255      1.13794         0.173986     -0.134906      0.018216
      3.47496      3.09725      3.25356         0.173986     -0.134906     -0.018216
      3.44428      6.64988      5.47827        -0.076158      0.088479      0.006326
      6.92160      0.62072      3.30473        -0.076158     -0.088479     -0.006326
      6.92160      4.25602      1.08677        -0.076158     -0.088479      0.006326
      3.44428      3.01458      7.69623        -0.076158      0.088479     -0.006326
    total drift:                                0.031066     -0.000000      0.000086

  FREE ENERGIE OF THE ION-ELECTRON SYSTEM (eV)
  free  energy   TOTEN  =       -59.90113397 eV

  energy  without entropy=      -59.90113397  energy(sigma->0) =      -59.90113397

[...]

 d Force = 0.2626382E-02[ 0.237E-02, 0.288E-02]  d Energy = 0.4856087E-02-0.223E-02
 d Force = 0.1688379E+00[ 0.168E+00, 0.170E+00]  d Ewald  = 0.5668090E+00-0.398E+00

 Steepest descent step on ions:
 trial-energy change:   -0.004856  1 .order   -0.004932   -0.005311   -0.004553
  (g-gl).g = 0.531E-02      g.g   = 0.531E-02  gl.gl    = 0.000E+00
 g(Force)  = 0.288E-02   g(Stress)= 0.243E-02 ortho     = 0.000E+00
 gamma     =   0.00000
 trial     =   1.00000
 opt step  =   4.00000  (harmonic =   7.01249) maximal distance =0.00671484
 next E    =   -59.919754   (d E  =  -0.01862)

[...]

 d Force = 0.1143620E-02[-0.401E-02, 0.630E-02]  d Energy =-0.6016878E-03 0.175E-02
 d Force = 0.9373418E+00[ 0.902E+00, 0.973E+00]  d Ewald  = 0.3297474E+01-0.236E+01

[...]

 d Force = 0.1033171E-02[ 0.137E-03, 0.193E-02]  d Energy = 0.3151242E-02-0.212E-02
 d Force =-0.4452617E+00[-0.453E+00,-0.437E+00]  d Ewald  =-0.1588261E+01 0.114E+01

[...]

 Conjugate gradient step on ions:
 trial-energy change:   -0.005633  1 .order   -0.005735   -0.005782   -0.005687
  (g-gl).g = 0.294E-02      g.g   = 0.273E-02  gl.gl    = 0.531E-02
 g(Force)  = 0.212E-02   g(Stress)= 0.613E-03 ortho     =-0.217E-03
 gamma     =   0.55449
 trial     =   2.21749
 opt step  =   8.86996  (harmonic = 134.00571) maximal distance =0.01511871
 next E    =   -60.092880   (d E  =  -0.17472)

[...]

 d Force = 0.1285841E-01[ 0.598E-02, 0.197E-01]  d Energy = 0.1151946E-01 0.134E-02
 d Force = 0.2674013E+01[ 0.261E+01, 0.273E+01]  d Ewald  = 0.7748491E+01-0.507E+01

[...]

 d Force = 0.3765265E-02[-0.165E-03, 0.770E-02]  d Energy = 0.3977028E-02-0.212E-03
 d Force = 0.6418206E+00[ 0.623E+00, 0.661E+00]  d Ewald  = 0.1331525E+01-0.690E+00

 Conjugate gradient step on ions:
 trial-energy change:   -0.003977  1 .order   -0.003994   -0.008230    0.000241
  (g-gl).g = 0.142E-02      g.g   = 0.131E-02  gl.gl    = 0.273E-02
 g(Force)  = 0.101E-02   g(Stress)= 0.298E-03 ortho     = 0.389E-04
 gamma     =   0.51915
 trial     =   6.20897
 opt step  =   6.03200  (harmonic =   6.03200) maximal distance =0.00969612
 next E    =   -59.952648   (d E  =  -0.00400)

[...]

 d Force =-0.3939446E-05[-0.126E-04, 0.474E-05]  d Energy = 0.2369858E-05-0.631E-05
 d Force =-0.1778380E-01[-0.178E-01,-0.178E-01]  d Ewald  =-0.3745260E-01 0.197E-01

[...]

 eigenvalue-minimisations  :   896
 total energy-change (2. order) :-0.1790928E-03  (-0.3075024E-03)
 number of electron      63.9999945 magnetization
 augmentation part      -11.4960157 magnetization

 Broyden mixing:
  rms(total) = 0.40869E-02    rms(broyden)= 0.40866E-02
  rms(prec ) = 0.54899E-02
  weight for this iteration     100.00

 eigenvalues of (default mixing * dielectric matrix)
  average eigenvalue GAMMA=   0.8107
  0.8107

[...]

--------------------------------------- Iteration     11(   3)  ---------------------------------------

 eigenvalue-minimisations  :   532
 total energy-change (2. order) : 0.3010645E-04  (-0.5827841E-05)
 number of electron      63.9999945 magnetization
 augmentation part      -11.4960157 magnetization

 Free energy of the ion-electron system (eV)
  alpha Z        PSCENC =        69.13784375
  Ewald energy   TEWEN  =     -1966.95624648
  -Hartree energ DENC   =      -368.40252177
  -exchange      EXHF   =         0.00000000
  -V(xc)+E(xc)   XCENC  =      -241.16922459
  PAW double counting   =      3846.32604714    -3478.92131174
  entropy T*S    EENTRO =        -0.00000000
  eigenvalues    EBANDS =      -213.32835823
  atomic energy  EATOM  =      2293.35992167
  Solvation  Ediel_sol  =         0.00000000
  free energy    TOTEN  =       -59.95385026 eV

  energy without entropy =      -59.95385026  energy(sigma->0) =      -59.95385026

 average (electrostatic) potential at core
  the test charge radii are     0.9748  1.4837  1.0808
  (the norm of the test charge is              1.0000)
       1 -27.9948       2 -27.9948       3 -27.9948       4 -27.9948       5 -40.9131
       6 -40.9131       7 -40.9131       8 -40.9131       9 -55.9516      10 -55.9516
      11 -55.9516      12 -55.9516      13 -55.9232      14 -55.9232      15 -55.9232
      16 -55.9232

 E-fermi :   1.2142     XC(G=0):  -8.0653     alpha+bet : -7.7802

[...]

 k-point     8 :       0.3333    0.3333    0.3333
  band No.  band energies     occupation
      1     -10.8594      2.00000
      2     -10.7394      2.00000
      3     -10.5884      2.00000
      4     -10.5039      2.00000
      5     -10.4342      2.00000
      6     -10.3939      2.00000
      7     -10.3390      2.00000
      8     -10.3194      2.00000
      9      -3.8951      2.00000
     10      -3.7796      2.00000
     11      -3.4435      2.00000
     12      -3.3136      2.00000
     13      -1.5210      2.00000
     14      -1.3826      2.00000
     15      -1.1969      2.00000
     16      -1.1110      2.00000
     17      -1.0695      2.00000
     18      -0.8550      2.00000
     19      -0.7513      2.00000
     20      -0.6748      2.00000
     21      -0.5042      2.00000
     22      -0.3975      2.00000
     23      -0.3561      2.00000
     24      -0.2954      2.00000
     25      -0.0909      2.00000
     26       0.0082      2.00000
     27       0.1339      2.00000
     28       0.2509      2.00000
     29       0.2993      2.00000
     30       0.4074      2.00000
     31       0.4697      2.00000
     32       0.5119      2.00000
     33       3.5385      0.00000
     34       3.6382      0.00000
     35       3.8814      0.00000
     36       4.0213      0.00000
     37       5.0732      0.00000
     38       5.3727      0.00000
     39       5.4423      0.00000
     40       5.6062      0.00000
     41       5.9061      0.00000
     42       5.9835      0.00000

 soft charge-density along one line, spin component           1
         0         1         2         3         4         5         6         7         8         9
 total charge-density along one line

------------------------ aborting loop because EDIFF is reached ----------------------------------------

[...]

  FORCE on cell =-STRESS in cart. coord.  units (eV):
  Direction    XX          YY          ZZ          XY          YZ          ZX
  Alpha Z    69.13784    69.13784    69.13784
  Ewald    -643.19120  -666.11054  -657.65757     0.00000    -0.00000     0.00000
  Hartree   129.33675   120.16780   118.99751    -0.00000    -0.00000    -0.00000
  E(xc)    -235.74973  -235.93784  -236.06989     0.00000    -0.00000    -0.00000
  Local    -356.38070  -326.49655  -329.36091    -0.00000     0.00000    -0.00000
  n-local   462.85145   463.07929   464.22329    -0.08280    -0.11695    -0.06466
  augment   -59.70770   -60.01260   -59.72458    -0.00000    -0.00000     0.00000
  Kinetic   633.68585   636.37978   630.65217    -0.34635     0.04397     0.00080
  Fock        0.00000     0.00000     0.00000     0.00000     0.00000     0.00000
  Total      -0.01745     0.20718     0.19784     0.00000     0.00000     0.00000
  in kB      -0.06408     0.76097     0.72666     0.00000     0.00000     0.00000

 VOLUME and BASIS-vectors are now :
  energy-cutoff  :      300.00
  volume of cell :      436.21
      direct lattice vectors                 reciprocal lattice vectors
     6.946145804  0.000000000  0.000000000     0.143964729  0.000000000  0.000000000
     0.000000000  7.334381771  0.000000000     0.000000000  0.136344143  0.000000000
     0.000000000  0.000000000  8.562292163     0.000000000  0.000000000  0.116791156

  length of vectors
     6.946145804  7.334381771  8.562292163     0.143964729  0.136344143  0.116791156

 FORCES acting on ions
    electron-ion (+dipol)            ewald-force                    non-local-force                 convergence-correction
   -.116E+00 0.352E+00 0.611E+00   0.124E+00 -.292E+00 -.546E+00   -.750E-02 -.625E-01 -.675E-01   -.235E-03 -.116E-03 0.105E-03
   -.116E+00 -.352E+00 0.611E+00   0.124E+00 0.292E+00 -.546E+00   -.750E-02 0.625E-01 -.675E-01   -.235E-03 0.116E-03 0.105E-03
   -.116E+00 0.352E+00 -.611E+00   0.124E+00 -.292E+00 0.546E+00   -.750E-02 -.625E-01 0.675E-01   -.235E-03 -.116E-03 -.105E-03
   -.116E+00 -.352E+00 -.611E+00   0.124E+00 0.292E+00 0.546E+00   -.750E-02 0.625E-01 0.675E-01   -.235E-03 0.116E-03 -.105E-03
   -.108E+01 0.175E+00 -.461E+00   0.968E+00 -.121E+00 0.425E+00   0.111E+00 -.280E-01 0.414E-01   -.953E-04 0.342E-02 0.252E-02
   -.108E+01 -.175E+00 0.461E+00   0.968E+00 0.121E+00 -.425E+00   0.111E+00 0.280E-01 -.414E-01   -.953E-04 -.342E-02 -.252E-02
   -.108E+01 -.175E+00 -.461E+00   0.968E+00 0.121E+00 0.425E+00   0.111E+00 0.280E-01 0.414E-01   -.953E-04 -.342E-02 0.252E-02
   -.108E+01 0.175E+00 0.461E+00   0.968E+00 -.121E+00 -.425E+00   0.111E+00 -.280E-01 -.414E-01   -.953E-04 0.342E-02 -.252E-02
   -.689E+01 -.579E+01 0.109E+02   0.831E+01 0.679E+01 -.127E+02   -.143E+01 -.102E+01 0.190E+01   -.237E-03 0.140E-01 -.199E-01
   -.689E+01 -.579E+01 -.109E+02   0.831E+01 0.679E+01 0.127E+02   -.143E+01 -.102E+01 -.190E+01   -.237E-03 0.140E-01 0.199E-01
   -.689E+01 0.579E+01 -.109E+02   0.831E+01 -.679E+01 0.127E+02   -.143E+01 0.102E+01 -.190E+01   -.237E-03 -.140E-01 0.199E-01
   -.689E+01 0.579E+01 0.109E+02   0.831E+01 -.679E+01 -.127E+02   -.143E+01 0.102E+01 0.190E+01   -.237E-03 -.140E-01 -.199E-01
   0.795E+01 -.675E+01 0.109E+02   -.940E+01 0.776E+01 -.127E+02   0.147E+01 -.998E+00 0.181E+01   -.336E-02 0.451E-03 -.360E-02
   0.795E+01 0.675E+01 -.109E+02   -.940E+01 -.776E+01 0.127E+02   0.147E+01 0.998E+00 -.181E+01   -.336E-02 -.451E-03 0.360E-02
   0.795E+01 0.675E+01 0.109E+02   -.940E+01 -.776E+01 -.127E+02   0.147E+01 0.998E+00 0.181E+01   -.336E-02 -.451E-03 -.360E-02
   0.795E+01 -.675E+01 -.109E+02   -.940E+01 0.776E+01 0.127E+02   0.147E+01 -.998E+00 -.181E+01   -.336E-02 0.451E-03 0.360E-02
   -.573E+00 -.232E-10 0.330E-04   0.533E-14 0.124E-13 0.178E-14   0.583E+00 0.222E-15 -.444E-15   -.157E-01 0.336E-12 0.315E-12

 POSITION                                       TOTAL-FORCE (eV/Angst)
      4.30357      4.31442      1.04739         0.000178     -0.002616     -0.002227
      0.83049      6.68715      5.32854         0.000178      0.002616     -0.002227
      4.30357      0.64723      3.23375         0.000178     -0.002616      0.002227
      0.83049      3.01996      7.51490         0.000178      0.002616      0.002227
      4.32125      4.23944      5.35145         0.001041      0.029371      0.007285
      0.84818      3.09494      3.21084         0.001041     -0.029371     -0.007285
      0.84818      6.76213      1.07031         0.001041     -0.029371      0.007285
      4.32125      0.57225      7.49199         0.001041      0.029371     -0.007285
      0.01985      0.59411      7.42662        -0.013040     -0.010140      0.019397
      0.01985      4.26130      5.41682        -0.013040     -0.010140     -0.019397
      3.49293      6.74028      1.13568        -0.013040      0.010140     -0.019397
      3.49293      3.07309      3.14547        -0.013040      0.010140      0.019397
      3.41529      6.71817      5.31947         0.011820      0.016243      0.005349
      6.88836      0.61621      3.24282         0.011820     -0.016243     -0.005349
      6.88836      4.28340      1.03832         0.011820     -0.016243      0.005349
      3.41529      3.05098      7.52397         0.011820      0.016243     -0.005349
    total drift:                               -0.005916     -0.000000      0.000033

  FREE ENERGIE OF THE ION-ELECTRON SYSTEM (eV)
  free  energy   TOTEN  =       -59.95385026 eV

  energy  without entropy=      -59.95385026  energy(sigma->0) =      -59.95385026

 d Force = 0.1121561E-02[ 0.648E-03, 0.160E-02]  d Energy = 0.1220468E-02-0.989E-04
 d Force =-0.2057496E+00[-0.207E+00,-0.205E+00]  d Ewald  =-0.5635907E+00 0.358E+00

 Conjugate gradient step on ions:
 trial-energy change:   -0.001220  1 .order   -0.001206   -0.001656   -0.000755
  (g-gl).g = 0.365E-04      g.g   = 0.267E-03  gl.gl    = 0.131E-02
 g(Force)  = 0.256E-03   g(Stress)= 0.105E-04 ortho     = 0.531E-04
 gamma     =   0.02793
 trial     =   6.17358
 opt step  =  11.34719  (harmonic =  11.34719) maximal distance =0.00562896
 next E    =   -59.954152   (d E  =  -0.00152)

 reached required accuracy - stopping structural energy minimisation

 total charge

# of ion       s       p       d       tot
    1        0.085   0.145   0.000   0.230
    2        0.086   0.145   0.000   0.231
    3        0.085   0.145   0.000   0.230
    4        0.086   0.145   0.000   0.231
    5        1.144   1.229   0.232   2.605
    6        1.145   1.229   0.231   2.605
    7        1.145   1.230   0.231   2.606
    8        1.143   1.230   0.232   2.605
    9        1.449   2.395   0.012   3.856
   10        1.449   2.395   0.012   3.856
   11        1.449   2.394   0.012   3.855
   12        1.449   2.396   0.012   3.857
   13        1.450   2.393   0.012   3.854
   14        1.450   2.390   0.011   3.852
   15        1.450   2.389   0.012   3.851
   16        1.450   2.389   0.012   3.851
tot         16.516  24.639   1.019  42.175